write_tb = true
write_u_matrices = true

bands_plot        = true

num_bands = 10
num_wann = 6
num_iter    = 3000
dis_win_max = 23.3
dis_froz_max = 15.3
dis_froz_min = -7.5
dis_win_min = -7.5

begin projections
Cu:d
f=0.25,0.25,0.25:s
end projections

begin unit_cell_cart
bohr
    0.0000000000000000    3.3390000083364089    3.3390000083364089
    3.3390000083364089    0.0000000000000000    3.3390000083364089
    3.3390000083364089    3.3390000083364089    0.0000000000000000
end unit_cell_cart

begin atoms_frac
 Cu   0.0000000000000000  0.0000000000000000  0.0000000000000000
End atoms_frac

begin kpoint_path
L 0.50000  0.50000 0.5000 G 0.00000  0.00000 0.0000
G 0.00000  0.00000 0.0000 X 0.50000  0.00000 0.5000
X 0.50000 -0.50000 0.0000 K 0.37500 -0.37500 0.0000
K 0.37500 -0.37500 0.0000 G 0.00000  0.00000 0.0000
end kpoint_path

bands_num_points = 100
guiding_centres = T
num_cg_steps = 10
conv_noise_amp = 5
search_shells = 2000
conv_tol = 1.0E-10
num_dump_cycles = 500
conv_window = 5
dis_num_iter = 300
dis_mix_ratio = 0.2
dis_conv_window = 5
dis_conv_tol = 1.0d-12
bands_plot_format = 'gnuplot"
num_print_cycles  = 50

mp_grid = 9 9 9

begin kpoints
  0.00000000  0.00000000  0.00000000
  0.00000000  0.00000000  0.11111111
  0.00000000  0.00000000  0.22222222
  0.00000000  0.00000000  0.33333333
  0.00000000  0.00000000  0.44444444
  0.00000000  0.00000000  0.55555556
  0.00000000  0.00000000  0.66666667
  0.00000000  0.00000000  0.77777778
  0.00000000  0.00000000  0.88888889
  0.00000000  0.11111111  0.00000000
  0.00000000  0.11111111  0.11111111
  0.00000000  0.11111111  0.22222222
  0.00000000  0.11111111  0.33333333
  0.00000000  0.11111111  0.44444444
  0.00000000  0.11111111  0.55555556
  0.00000000  0.11111111  0.66666667
  0.00000000  0.11111111  0.77777778
  0.00000000  0.11111111  0.88888889
  0.00000000  0.22222222  0.00000000
  0.00000000  0.22222222  0.11111111
  0.00000000  0.22222222  0.22222222
  0.00000000  0.22222222  0.33333333
  0.00000000  0.22222222  0.44444444
  0.00000000  0.22222222  0.55555556
  0.00000000  0.22222222  0.66666667
  0.00000000  0.22222222  0.77777778
  0.00000000  0.22222222  0.88888889
  0.00000000  0.33333333  0.00000000
  0.00000000  0.33333333  0.11111111
  0.00000000  0.33333333  0.22222222
  0.00000000  0.33333333  0.33333333
  0.00000000  0.33333333  0.44444444
  0.00000000  0.33333333  0.55555556
  0.00000000  0.33333333  0.66666667
  0.00000000  0.33333333  0.77777778
  0.00000000  0.33333333  0.88888889
  0.00000000  0.44444444  0.00000000
  0.00000000  0.44444444  0.11111111
  0.00000000  0.44444444  0.22222222
  0.00000000  0.44444444  0.33333333
  0.00000000  0.44444444  0.44444444
  0.00000000  0.44444444  0.55555556
  0.00000000  0.44444444  0.66666667
  0.00000000  0.44444444  0.77777778
  0.00000000  0.44444444  0.88888889
  0.00000000  0.55555556  0.00000000
  0.00000000  0.55555556  0.11111111
  0.00000000  0.55555556  0.22222222
  0.00000000  0.55555556  0.33333333
  0.00000000  0.55555556  0.44444444
  0.00000000  0.55555556  0.55555556
  0.00000000  0.55555556  0.66666667
  0.00000000  0.55555556  0.77777778
  0.00000000  0.55555556  0.88888889
  0.00000000  0.66666667  0.00000000
  0.00000000  0.66666667  0.11111111
  0.00000000  0.66666667  0.22222222
  0.00000000  0.66666667  0.33333333
  0.00000000  0.66666667  0.44444444
  0.00000000  0.66666667  0.55555556
  0.00000000  0.66666667  0.66666667
  0.00000000  0.66666667  0.77777778
  0.00000000  0.66666667  0.88888889
  0.00000000  0.77777778  0.00000000
  0.00000000  0.77777778  0.11111111
  0.00000000  0.77777778  0.22222222
  0.00000000  0.77777778  0.33333333
  0.00000000  0.77777778  0.44444444
  0.00000000  0.77777778  0.55555556
  0.00000000  0.77777778  0.66666667
  0.00000000  0.77777778  0.77777778
  0.00000000  0.77777778  0.88888889
  0.00000000  0.88888889  0.00000000
  0.00000000  0.88888889  0.11111111
  0.00000000  0.88888889  0.22222222
  0.00000000  0.88888889  0.33333333
  0.00000000  0.88888889  0.44444444
  0.00000000  0.88888889  0.55555556
  0.00000000  0.88888889  0.66666667
  0.00000000  0.88888889  0.77777778
  0.00000000  0.88888889  0.88888889
  0.11111111  0.00000000  0.00000000
  0.11111111  0.00000000  0.11111111
  0.11111111  0.00000000  0.22222222
  0.11111111  0.00000000  0.33333333
  0.11111111  0.00000000  0.44444444
  0.11111111  0.00000000  0.55555556
  0.11111111  0.00000000  0.66666667
  0.11111111  0.00000000  0.77777778
  0.11111111  0.00000000  0.88888889
  0.11111111  0.11111111  0.00000000
  0.11111111  0.11111111  0.11111111
  0.11111111  0.11111111  0.22222222
  0.11111111  0.11111111  0.33333333
  0.11111111  0.11111111  0.44444444
  0.11111111  0.11111111  0.55555556
  0.11111111  0.11111111  0.66666667
  0.11111111  0.11111111  0.77777778
  0.11111111  0.11111111  0.88888889
  0.11111111  0.22222222  0.00000000
  0.11111111  0.22222222  0.11111111
  0.11111111  0.22222222  0.22222222
  0.11111111  0.22222222  0.33333333
  0.11111111  0.22222222  0.44444444
  0.11111111  0.22222222  0.55555556
  0.11111111  0.22222222  0.66666667
  0.11111111  0.22222222  0.77777778
  0.11111111  0.22222222  0.88888889
  0.11111111  0.33333333  0.00000000
  0.11111111  0.33333333  0.11111111
  0.11111111  0.33333333  0.22222222
  0.11111111  0.33333333  0.33333333
  0.11111111  0.33333333  0.44444444
  0.11111111  0.33333333  0.55555556
  0.11111111  0.33333333  0.66666667
  0.11111111  0.33333333  0.77777778
  0.11111111  0.33333333  0.88888889
  0.11111111  0.44444444  0.00000000
  0.11111111  0.44444444  0.11111111
  0.11111111  0.44444444  0.22222222
  0.11111111  0.44444444  0.33333333
  0.11111111  0.44444444  0.44444444
  0.11111111  0.44444444  0.55555556
  0.11111111  0.44444444  0.66666667
  0.11111111  0.44444444  0.77777778
  0.11111111  0.44444444  0.88888889
  0.11111111  0.55555556  0.00000000
  0.11111111  0.55555556  0.11111111
  0.11111111  0.55555556  0.22222222
  0.11111111  0.55555556  0.33333333
  0.11111111  0.55555556  0.44444444
  0.11111111  0.55555556  0.55555556
  0.11111111  0.55555556  0.66666667
  0.11111111  0.55555556  0.77777778
  0.11111111  0.55555556  0.88888889
  0.11111111  0.66666667  0.00000000
  0.11111111  0.66666667  0.11111111
  0.11111111  0.66666667  0.22222222
  0.11111111  0.66666667  0.33333333
  0.11111111  0.66666667  0.44444444
  0.11111111  0.66666667  0.55555556
  0.11111111  0.66666667  0.66666667
  0.11111111  0.66666667  0.77777778
  0.11111111  0.66666667  0.88888889
  0.11111111  0.77777778  0.00000000
  0.11111111  0.77777778  0.11111111
  0.11111111  0.77777778  0.22222222
  0.11111111  0.77777778  0.33333333
  0.11111111  0.77777778  0.44444444
  0.11111111  0.77777778  0.55555556
  0.11111111  0.77777778  0.66666667
  0.11111111  0.77777778  0.77777778
  0.11111111  0.77777778  0.88888889
  0.11111111  0.88888889  0.00000000
  0.11111111  0.88888889  0.11111111
  0.11111111  0.88888889  0.22222222
  0.11111111  0.88888889  0.33333333
  0.11111111  0.88888889  0.44444444
  0.11111111  0.88888889  0.55555556
  0.11111111  0.88888889  0.66666667
  0.11111111  0.88888889  0.77777778
  0.11111111  0.88888889  0.88888889
  0.22222222  0.00000000  0.00000000
  0.22222222  0.00000000  0.11111111
  0.22222222  0.00000000  0.22222222
  0.22222222  0.00000000  0.33333333
  0.22222222  0.00000000  0.44444444
  0.22222222  0.00000000  0.55555556
  0.22222222  0.00000000  0.66666667
  0.22222222  0.00000000  0.77777778
  0.22222222  0.00000000  0.88888889
  0.22222222  0.11111111  0.00000000
  0.22222222  0.11111111  0.11111111
  0.22222222  0.11111111  0.22222222
  0.22222222  0.11111111  0.33333333
  0.22222222  0.11111111  0.44444444
  0.22222222  0.11111111  0.55555556
  0.22222222  0.11111111  0.66666667
  0.22222222  0.11111111  0.77777778
  0.22222222  0.11111111  0.88888889
  0.22222222  0.22222222  0.00000000
  0.22222222  0.22222222  0.11111111
  0.22222222  0.22222222  0.22222222
  0.22222222  0.22222222  0.33333333
  0.22222222  0.22222222  0.44444444
  0.22222222  0.22222222  0.55555556
  0.22222222  0.22222222  0.66666667
  0.22222222  0.22222222  0.77777778
  0.22222222  0.22222222  0.88888889
  0.22222222  0.33333333  0.00000000
  0.22222222  0.33333333  0.11111111
  0.22222222  0.33333333  0.22222222
  0.22222222  0.33333333  0.33333333
  0.22222222  0.33333333  0.44444444
  0.22222222  0.33333333  0.55555556
  0.22222222  0.33333333  0.66666667
  0.22222222  0.33333333  0.77777778
  0.22222222  0.33333333  0.88888889
  0.22222222  0.44444444  0.00000000
  0.22222222  0.44444444  0.11111111
  0.22222222  0.44444444  0.22222222
  0.22222222  0.44444444  0.33333333
  0.22222222  0.44444444  0.44444444
  0.22222222  0.44444444  0.55555556
  0.22222222  0.44444444  0.66666667
  0.22222222  0.44444444  0.77777778
  0.22222222  0.44444444  0.88888889
  0.22222222  0.55555556  0.00000000
  0.22222222  0.55555556  0.11111111
  0.22222222  0.55555556  0.22222222
  0.22222222  0.55555556  0.33333333
  0.22222222  0.55555556  0.44444444
  0.22222222  0.55555556  0.55555556
  0.22222222  0.55555556  0.66666667
  0.22222222  0.55555556  0.77777778
  0.22222222  0.55555556  0.88888889
  0.22222222  0.66666667  0.00000000
  0.22222222  0.66666667  0.11111111
  0.22222222  0.66666667  0.22222222
  0.22222222  0.66666667  0.33333333
  0.22222222  0.66666667  0.44444444
  0.22222222  0.66666667  0.55555556
  0.22222222  0.66666667  0.66666667
  0.22222222  0.66666667  0.77777778
  0.22222222  0.66666667  0.88888889
  0.22222222  0.77777778  0.00000000
  0.22222222  0.77777778  0.11111111
  0.22222222  0.77777778  0.22222222
  0.22222222  0.77777778  0.33333333
  0.22222222  0.77777778  0.44444444
  0.22222222  0.77777778  0.55555556
  0.22222222  0.77777778  0.66666667
  0.22222222  0.77777778  0.77777778
  0.22222222  0.77777778  0.88888889
  0.22222222  0.88888889  0.00000000
  0.22222222  0.88888889  0.11111111
  0.22222222  0.88888889  0.22222222
  0.22222222  0.88888889  0.33333333
  0.22222222  0.88888889  0.44444444
  0.22222222  0.88888889  0.55555556
  0.22222222  0.88888889  0.66666667
  0.22222222  0.88888889  0.77777778
  0.22222222  0.88888889  0.88888889
  0.33333333  0.00000000  0.00000000
  0.33333333  0.00000000  0.11111111
  0.33333333  0.00000000  0.22222222
  0.33333333  0.00000000  0.33333333
  0.33333333  0.00000000  0.44444444
  0.33333333  0.00000000  0.55555556
  0.33333333  0.00000000  0.66666667
  0.33333333  0.00000000  0.77777778
  0.33333333  0.00000000  0.88888889
  0.33333333  0.11111111  0.00000000
  0.33333333  0.11111111  0.11111111
  0.33333333  0.11111111  0.22222222
  0.33333333  0.11111111  0.33333333
  0.33333333  0.11111111  0.44444444
  0.33333333  0.11111111  0.55555556
  0.33333333  0.11111111  0.66666667
  0.33333333  0.11111111  0.77777778
  0.33333333  0.11111111  0.88888889
  0.33333333  0.22222222  0.00000000
  0.33333333  0.22222222  0.11111111
  0.33333333  0.22222222  0.22222222
  0.33333333  0.22222222  0.33333333
  0.33333333  0.22222222  0.44444444
  0.33333333  0.22222222  0.55555556
  0.33333333  0.22222222  0.66666667
  0.33333333  0.22222222  0.77777778
  0.33333333  0.22222222  0.88888889
  0.33333333  0.33333333  0.00000000
  0.33333333  0.33333333  0.11111111
  0.33333333  0.33333333  0.22222222
  0.33333333  0.33333333  0.33333333
  0.33333333  0.33333333  0.44444444
  0.33333333  0.33333333  0.55555556
  0.33333333  0.33333333  0.66666667
  0.33333333  0.33333333  0.77777778
  0.33333333  0.33333333  0.88888889
  0.33333333  0.44444444  0.00000000
  0.33333333  0.44444444  0.11111111
  0.33333333  0.44444444  0.22222222
  0.33333333  0.44444444  0.33333333
  0.33333333  0.44444444  0.44444444
  0.33333333  0.44444444  0.55555556
  0.33333333  0.44444444  0.66666667
  0.33333333  0.44444444  0.77777778
  0.33333333  0.44444444  0.88888889
  0.33333333  0.55555556  0.00000000
  0.33333333  0.55555556  0.11111111
  0.33333333  0.55555556  0.22222222
  0.33333333  0.55555556  0.33333333
  0.33333333  0.55555556  0.44444444
  0.33333333  0.55555556  0.55555556
  0.33333333  0.55555556  0.66666667
  0.33333333  0.55555556  0.77777778
  0.33333333  0.55555556  0.88888889
  0.33333333  0.66666667  0.00000000
  0.33333333  0.66666667  0.11111111
  0.33333333  0.66666667  0.22222222
  0.33333333  0.66666667  0.33333333
  0.33333333  0.66666667  0.44444444
  0.33333333  0.66666667  0.55555556
  0.33333333  0.66666667  0.66666667
  0.33333333  0.66666667  0.77777778
  0.33333333  0.66666667  0.88888889
  0.33333333  0.77777778  0.00000000
  0.33333333  0.77777778  0.11111111
  0.33333333  0.77777778  0.22222222
  0.33333333  0.77777778  0.33333333
  0.33333333  0.77777778  0.44444444
  0.33333333  0.77777778  0.55555556
  0.33333333  0.77777778  0.66666667
  0.33333333  0.77777778  0.77777778
  0.33333333  0.77777778  0.88888889
  0.33333333  0.88888889  0.00000000
  0.33333333  0.88888889  0.11111111
  0.33333333  0.88888889  0.22222222
  0.33333333  0.88888889  0.33333333
  0.33333333  0.88888889  0.44444444
  0.33333333  0.88888889  0.55555556
  0.33333333  0.88888889  0.66666667
  0.33333333  0.88888889  0.77777778
  0.33333333  0.88888889  0.88888889
  0.44444444  0.00000000  0.00000000
  0.44444444  0.00000000  0.11111111
  0.44444444  0.00000000  0.22222222
  0.44444444  0.00000000  0.33333333
  0.44444444  0.00000000  0.44444444
  0.44444444  0.00000000  0.55555556
  0.44444444  0.00000000  0.66666667
  0.44444444  0.00000000  0.77777778
  0.44444444  0.00000000  0.88888889
  0.44444444  0.11111111  0.00000000
  0.44444444  0.11111111  0.11111111
  0.44444444  0.11111111  0.22222222
  0.44444444  0.11111111  0.33333333
  0.44444444  0.11111111  0.44444444
  0.44444444  0.11111111  0.55555556
  0.44444444  0.11111111  0.66666667
  0.44444444  0.11111111  0.77777778
  0.44444444  0.11111111  0.88888889
  0.44444444  0.22222222  0.00000000
  0.44444444  0.22222222  0.11111111
  0.44444444  0.22222222  0.22222222
  0.44444444  0.22222222  0.33333333
  0.44444444  0.22222222  0.44444444
  0.44444444  0.22222222  0.55555556
  0.44444444  0.22222222  0.66666667
  0.44444444  0.22222222  0.77777778
  0.44444444  0.22222222  0.88888889
  0.44444444  0.33333333  0.00000000
  0.44444444  0.33333333  0.11111111
  0.44444444  0.33333333  0.22222222
  0.44444444  0.33333333  0.33333333
  0.44444444  0.33333333  0.44444444
  0.44444444  0.33333333  0.55555556
  0.44444444  0.33333333  0.66666667
  0.44444444  0.33333333  0.77777778
  0.44444444  0.33333333  0.88888889
  0.44444444  0.44444444  0.00000000
  0.44444444  0.44444444  0.11111111
  0.44444444  0.44444444  0.22222222
  0.44444444  0.44444444  0.33333333
  0.44444444  0.44444444  0.44444444
  0.44444444  0.44444444  0.55555556
  0.44444444  0.44444444  0.66666667
  0.44444444  0.44444444  0.77777778
  0.44444444  0.44444444  0.88888889
  0.44444444  0.55555556  0.00000000
  0.44444444  0.55555556  0.11111111
  0.44444444  0.55555556  0.22222222
  0.44444444  0.55555556  0.33333333
  0.44444444  0.55555556  0.44444444
  0.44444444  0.55555556  0.55555556
  0.44444444  0.55555556  0.66666667
  0.44444444  0.55555556  0.77777778
  0.44444444  0.55555556  0.88888889
  0.44444444  0.66666667  0.00000000
  0.44444444  0.66666667  0.11111111
  0.44444444  0.66666667  0.22222222
  0.44444444  0.66666667  0.33333333
  0.44444444  0.66666667  0.44444444
  0.44444444  0.66666667  0.55555556
  0.44444444  0.66666667  0.66666667
  0.44444444  0.66666667  0.77777778
  0.44444444  0.66666667  0.88888889
  0.44444444  0.77777778  0.00000000
  0.44444444  0.77777778  0.11111111
  0.44444444  0.77777778  0.22222222
  0.44444444  0.77777778  0.33333333
  0.44444444  0.77777778  0.44444444
  0.44444444  0.77777778  0.55555556
  0.44444444  0.77777778  0.66666667
  0.44444444  0.77777778  0.77777778
  0.44444444  0.77777778  0.88888889
  0.44444444  0.88888889  0.00000000
  0.44444444  0.88888889  0.11111111
  0.44444444  0.88888889  0.22222222
  0.44444444  0.88888889  0.33333333
  0.44444444  0.88888889  0.44444444
  0.44444444  0.88888889  0.55555556
  0.44444444  0.88888889  0.66666667
  0.44444444  0.88888889  0.77777778
  0.44444444  0.88888889  0.88888889
  0.55555556  0.00000000  0.00000000
  0.55555556  0.00000000  0.11111111
  0.55555556  0.00000000  0.22222222
  0.55555556  0.00000000  0.33333333
  0.55555556  0.00000000  0.44444444
  0.55555556  0.00000000  0.55555556
  0.55555556  0.00000000  0.66666667
  0.55555556  0.00000000  0.77777778
  0.55555556  0.00000000  0.88888889
  0.55555556  0.11111111  0.00000000
  0.55555556  0.11111111  0.11111111
  0.55555556  0.11111111  0.22222222
  0.55555556  0.11111111  0.33333333
  0.55555556  0.11111111  0.44444444
  0.55555556  0.11111111  0.55555556
  0.55555556  0.11111111  0.66666667
  0.55555556  0.11111111  0.77777778
  0.55555556  0.11111111  0.88888889
  0.55555556  0.22222222  0.00000000
  0.55555556  0.22222222  0.11111111
  0.55555556  0.22222222  0.22222222
  0.55555556  0.22222222  0.33333333
  0.55555556  0.22222222  0.44444444
  0.55555556  0.22222222  0.55555556
  0.55555556  0.22222222  0.66666667
  0.55555556  0.22222222  0.77777778
  0.55555556  0.22222222  0.88888889
  0.55555556  0.33333333  0.00000000
  0.55555556  0.33333333  0.11111111
  0.55555556  0.33333333  0.22222222
  0.55555556  0.33333333  0.33333333
  0.55555556  0.33333333  0.44444444
  0.55555556  0.33333333  0.55555556
  0.55555556  0.33333333  0.66666667
  0.55555556  0.33333333  0.77777778
  0.55555556  0.33333333  0.88888889
  0.55555556  0.44444444  0.00000000
  0.55555556  0.44444444  0.11111111
  0.55555556  0.44444444  0.22222222
  0.55555556  0.44444444  0.33333333
  0.55555556  0.44444444  0.44444444
  0.55555556  0.44444444  0.55555556
  0.55555556  0.44444444  0.66666667
  0.55555556  0.44444444  0.77777778
  0.55555556  0.44444444  0.88888889
  0.55555556  0.55555556  0.00000000
  0.55555556  0.55555556  0.11111111
  0.55555556  0.55555556  0.22222222
  0.55555556  0.55555556  0.33333333
  0.55555556  0.55555556  0.44444444
  0.55555556  0.55555556  0.55555556
  0.55555556  0.55555556  0.66666667
  0.55555556  0.55555556  0.77777778
  0.55555556  0.55555556  0.88888889
  0.55555556  0.66666667  0.00000000
  0.55555556  0.66666667  0.11111111
  0.55555556  0.66666667  0.22222222
  0.55555556  0.66666667  0.33333333
  0.55555556  0.66666667  0.44444444
  0.55555556  0.66666667  0.55555556
  0.55555556  0.66666667  0.66666667
  0.55555556  0.66666667  0.77777778
  0.55555556  0.66666667  0.88888889
  0.55555556  0.77777778  0.00000000
  0.55555556  0.77777778  0.11111111
  0.55555556  0.77777778  0.22222222
  0.55555556  0.77777778  0.33333333
  0.55555556  0.77777778  0.44444444
  0.55555556  0.77777778  0.55555556
  0.55555556  0.77777778  0.66666667
  0.55555556  0.77777778  0.77777778
  0.55555556  0.77777778  0.88888889
  0.55555556  0.88888889  0.00000000
  0.55555556  0.88888889  0.11111111
  0.55555556  0.88888889  0.22222222
  0.55555556  0.88888889  0.33333333
  0.55555556  0.88888889  0.44444444
  0.55555556  0.88888889  0.55555556
  0.55555556  0.88888889  0.66666667
  0.55555556  0.88888889  0.77777778
  0.55555556  0.88888889  0.88888889
  0.66666667  0.00000000  0.00000000
  0.66666667  0.00000000  0.11111111
  0.66666667  0.00000000  0.22222222
  0.66666667  0.00000000  0.33333333
  0.66666667  0.00000000  0.44444444
  0.66666667  0.00000000  0.55555556
  0.66666667  0.00000000  0.66666667
  0.66666667  0.00000000  0.77777778
  0.66666667  0.00000000  0.88888889
  0.66666667  0.11111111  0.00000000
  0.66666667  0.11111111  0.11111111
  0.66666667  0.11111111  0.22222222
  0.66666667  0.11111111  0.33333333
  0.66666667  0.11111111  0.44444444
  0.66666667  0.11111111  0.55555556
  0.66666667  0.11111111  0.66666667
  0.66666667  0.11111111  0.77777778
  0.66666667  0.11111111  0.88888889
  0.66666667  0.22222222  0.00000000
  0.66666667  0.22222222  0.11111111
  0.66666667  0.22222222  0.22222222
  0.66666667  0.22222222  0.33333333
  0.66666667  0.22222222  0.44444444
  0.66666667  0.22222222  0.55555556
  0.66666667  0.22222222  0.66666667
  0.66666667  0.22222222  0.77777778
  0.66666667  0.22222222  0.88888889
  0.66666667  0.33333333  0.00000000
  0.66666667  0.33333333  0.11111111
  0.66666667  0.33333333  0.22222222
  0.66666667  0.33333333  0.33333333
  0.66666667  0.33333333  0.44444444
  0.66666667  0.33333333  0.55555556
  0.66666667  0.33333333  0.66666667
  0.66666667  0.33333333  0.77777778
  0.66666667  0.33333333  0.88888889
  0.66666667  0.44444444  0.00000000
  0.66666667  0.44444444  0.11111111
  0.66666667  0.44444444  0.22222222
  0.66666667  0.44444444  0.33333333
  0.66666667  0.44444444  0.44444444
  0.66666667  0.44444444  0.55555556
  0.66666667  0.44444444  0.66666667
  0.66666667  0.44444444  0.77777778
  0.66666667  0.44444444  0.88888889
  0.66666667  0.55555556  0.00000000
  0.66666667  0.55555556  0.11111111
  0.66666667  0.55555556  0.22222222
  0.66666667  0.55555556  0.33333333
  0.66666667  0.55555556  0.44444444
  0.66666667  0.55555556  0.55555556
  0.66666667  0.55555556  0.66666667
  0.66666667  0.55555556  0.77777778
  0.66666667  0.55555556  0.88888889
  0.66666667  0.66666667  0.00000000
  0.66666667  0.66666667  0.11111111
  0.66666667  0.66666667  0.22222222
  0.66666667  0.66666667  0.33333333
  0.66666667  0.66666667  0.44444444
  0.66666667  0.66666667  0.55555556
  0.66666667  0.66666667  0.66666667
  0.66666667  0.66666667  0.77777778
  0.66666667  0.66666667  0.88888889
  0.66666667  0.77777778  0.00000000
  0.66666667  0.77777778  0.11111111
  0.66666667  0.77777778  0.22222222
  0.66666667  0.77777778  0.33333333
  0.66666667  0.77777778  0.44444444
  0.66666667  0.77777778  0.55555556
  0.66666667  0.77777778  0.66666667
  0.66666667  0.77777778  0.77777778
  0.66666667  0.77777778  0.88888889
  0.66666667  0.88888889  0.00000000
  0.66666667  0.88888889  0.11111111
  0.66666667  0.88888889  0.22222222
  0.66666667  0.88888889  0.33333333
  0.66666667  0.88888889  0.44444444
  0.66666667  0.88888889  0.55555556
  0.66666667  0.88888889  0.66666667
  0.66666667  0.88888889  0.77777778
  0.66666667  0.88888889  0.88888889
  0.77777778  0.00000000  0.00000000
  0.77777778  0.00000000  0.11111111
  0.77777778  0.00000000  0.22222222
  0.77777778  0.00000000  0.33333333
  0.77777778  0.00000000  0.44444444
  0.77777778  0.00000000  0.55555556
  0.77777778  0.00000000  0.66666667
  0.77777778  0.00000000  0.77777778
  0.77777778  0.00000000  0.88888889
  0.77777778  0.11111111  0.00000000
  0.77777778  0.11111111  0.11111111
  0.77777778  0.11111111  0.22222222
  0.77777778  0.11111111  0.33333333
  0.77777778  0.11111111  0.44444444
  0.77777778  0.11111111  0.55555556
  0.77777778  0.11111111  0.66666667
  0.77777778  0.11111111  0.77777778
  0.77777778  0.11111111  0.88888889
  0.77777778  0.22222222  0.00000000
  0.77777778  0.22222222  0.11111111
  0.77777778  0.22222222  0.22222222
  0.77777778  0.22222222  0.33333333
  0.77777778  0.22222222  0.44444444
  0.77777778  0.22222222  0.55555556
  0.77777778  0.22222222  0.66666667
  0.77777778  0.22222222  0.77777778
  0.77777778  0.22222222  0.88888889
  0.77777778  0.33333333  0.00000000
  0.77777778  0.33333333  0.11111111
  0.77777778  0.33333333  0.22222222
  0.77777778  0.33333333  0.33333333
  0.77777778  0.33333333  0.44444444
  0.77777778  0.33333333  0.55555556
  0.77777778  0.33333333  0.66666667
  0.77777778  0.33333333  0.77777778
  0.77777778  0.33333333  0.88888889
  0.77777778  0.44444444  0.00000000
  0.77777778  0.44444444  0.11111111
  0.77777778  0.44444444  0.22222222
  0.77777778  0.44444444  0.33333333
  0.77777778  0.44444444  0.44444444
  0.77777778  0.44444444  0.55555556
  0.77777778  0.44444444  0.66666667
  0.77777778  0.44444444  0.77777778
  0.77777778  0.44444444  0.88888889
  0.77777778  0.55555556  0.00000000
  0.77777778  0.55555556  0.11111111
  0.77777778  0.55555556  0.22222222
  0.77777778  0.55555556  0.33333333
  0.77777778  0.55555556  0.44444444
  0.77777778  0.55555556  0.55555556
  0.77777778  0.55555556  0.66666667
  0.77777778  0.55555556  0.77777778
  0.77777778  0.55555556  0.88888889
  0.77777778  0.66666667  0.00000000
  0.77777778  0.66666667  0.11111111
  0.77777778  0.66666667  0.22222222
  0.77777778  0.66666667  0.33333333
  0.77777778  0.66666667  0.44444444
  0.77777778  0.66666667  0.55555556
  0.77777778  0.66666667  0.66666667
  0.77777778  0.66666667  0.77777778
  0.77777778  0.66666667  0.88888889
  0.77777778  0.77777778  0.00000000
  0.77777778  0.77777778  0.11111111
  0.77777778  0.77777778  0.22222222
  0.77777778  0.77777778  0.33333333
  0.77777778  0.77777778  0.44444444
  0.77777778  0.77777778  0.55555556
  0.77777778  0.77777778  0.66666667
  0.77777778  0.77777778  0.77777778
  0.77777778  0.77777778  0.88888889
  0.77777778  0.88888889  0.00000000
  0.77777778  0.88888889  0.11111111
  0.77777778  0.88888889  0.22222222
  0.77777778  0.88888889  0.33333333
  0.77777778  0.88888889  0.44444444
  0.77777778  0.88888889  0.55555556
  0.77777778  0.88888889  0.66666667
  0.77777778  0.88888889  0.77777778
  0.77777778  0.88888889  0.88888889
  0.88888889  0.00000000  0.00000000
  0.88888889  0.00000000  0.11111111
  0.88888889  0.00000000  0.22222222
  0.88888889  0.00000000  0.33333333
  0.88888889  0.00000000  0.44444444
  0.88888889  0.00000000  0.55555556
  0.88888889  0.00000000  0.66666667
  0.88888889  0.00000000  0.77777778
  0.88888889  0.00000000  0.88888889
  0.88888889  0.11111111  0.00000000
  0.88888889  0.11111111  0.11111111
  0.88888889  0.11111111  0.22222222
  0.88888889  0.11111111  0.33333333
  0.88888889  0.11111111  0.44444444
  0.88888889  0.11111111  0.55555556
  0.88888889  0.11111111  0.66666667
  0.88888889  0.11111111  0.77777778
  0.88888889  0.11111111  0.88888889
  0.88888889  0.22222222  0.00000000
  0.88888889  0.22222222  0.11111111
  0.88888889  0.22222222  0.22222222
  0.88888889  0.22222222  0.33333333
  0.88888889  0.22222222  0.44444444
  0.88888889  0.22222222  0.55555556
  0.88888889  0.22222222  0.66666667
  0.88888889  0.22222222  0.77777778
  0.88888889  0.22222222  0.88888889
  0.88888889  0.33333333  0.00000000
  0.88888889  0.33333333  0.11111111
  0.88888889  0.33333333  0.22222222
  0.88888889  0.33333333  0.33333333
  0.88888889  0.33333333  0.44444444
  0.88888889  0.33333333  0.55555556
  0.88888889  0.33333333  0.66666667
  0.88888889  0.33333333  0.77777778
  0.88888889  0.33333333  0.88888889
  0.88888889  0.44444444  0.00000000
  0.88888889  0.44444444  0.11111111
  0.88888889  0.44444444  0.22222222
  0.88888889  0.44444444  0.33333333
  0.88888889  0.44444444  0.44444444
  0.88888889  0.44444444  0.55555556
  0.88888889  0.44444444  0.66666667
  0.88888889  0.44444444  0.77777778
  0.88888889  0.44444444  0.88888889
  0.88888889  0.55555556  0.00000000
  0.88888889  0.55555556  0.11111111
  0.88888889  0.55555556  0.22222222
  0.88888889  0.55555556  0.33333333
  0.88888889  0.55555556  0.44444444
  0.88888889  0.55555556  0.55555556
  0.88888889  0.55555556  0.66666667
  0.88888889  0.55555556  0.77777778
  0.88888889  0.55555556  0.88888889
  0.88888889  0.66666667  0.00000000
  0.88888889  0.66666667  0.11111111
  0.88888889  0.66666667  0.22222222
  0.88888889  0.66666667  0.33333333
  0.88888889  0.66666667  0.44444444
  0.88888889  0.66666667  0.55555556
  0.88888889  0.66666667  0.66666667
  0.88888889  0.66666667  0.77777778
  0.88888889  0.66666667  0.88888889
  0.88888889  0.77777778  0.00000000
  0.88888889  0.77777778  0.11111111
  0.88888889  0.77777778  0.22222222
  0.88888889  0.77777778  0.33333333
  0.88888889  0.77777778  0.44444444
  0.88888889  0.77777778  0.55555556
  0.88888889  0.77777778  0.66666667
  0.88888889  0.77777778  0.77777778
  0.88888889  0.77777778  0.88888889
  0.88888889  0.88888889  0.00000000
  0.88888889  0.88888889  0.11111111
  0.88888889  0.88888889  0.22222222
  0.88888889  0.88888889  0.33333333
  0.88888889  0.88888889  0.44444444
  0.88888889  0.88888889  0.55555556
  0.88888889  0.88888889  0.66666667
  0.88888889  0.88888889  0.77777778
  0.88888889  0.88888889  0.88888889
end kpoints

