&CONTROL
  calculation = 'nscf',
  outdir = './out/',
  pseudo_dir = '.'
  wf_collect = .true.
  tstress = .true.
  tprnfor = .true.
  pseudo_dir = '../'
  prefix = 'cu'
/
&SYSTEM
  ibrav = 0,
  nat   = 1,
  ntyp  = 1,
  occupations = 'smearing',
  smearing = 'mp'
  degauss = 0.01
  ecutwfc = 70
  ecutrho = 300
/
&ELECTRONS
  conv_thr = 1.0d-12
/

CELL_PARAMETERS bohr
    0.0000000000000000    3.3390000083364089    3.3390000083364089
    3.3390000083364089    0.0000000000000000    3.3390000083364089
    3.3390000083364089    3.3390000083364089    0.0000000000000000
ATOMIC_SPECIES
 Cu   63.54600  Cu.pbe-dn-rrkjus_psl.1.0.0.UPF
ATOMIC_POSITIONS crystal
 Cu   0.0000000000000000  0.0000000000000000  0.0000000000000000

K_POINTS crystal
729
  0.00000000  0.00000000  0.00000000  1.371742e-03
  0.00000000  0.00000000  0.11111111  1.371742e-03
  0.00000000  0.00000000  0.22222222  1.371742e-03
  0.00000000  0.00000000  0.33333333  1.371742e-03
  0.00000000  0.00000000  0.44444444  1.371742e-03
  0.00000000  0.00000000  0.55555556  1.371742e-03
  0.00000000  0.00000000  0.66666667  1.371742e-03
  0.00000000  0.00000000  0.77777778  1.371742e-03
  0.00000000  0.00000000  0.88888889  1.371742e-03
  0.00000000  0.11111111  0.00000000  1.371742e-03
  0.00000000  0.11111111  0.11111111  1.371742e-03
  0.00000000  0.11111111  0.22222222  1.371742e-03
  0.00000000  0.11111111  0.33333333  1.371742e-03
  0.00000000  0.11111111  0.44444444  1.371742e-03
  0.00000000  0.11111111  0.55555556  1.371742e-03
  0.00000000  0.11111111  0.66666667  1.371742e-03
  0.00000000  0.11111111  0.77777778  1.371742e-03
  0.00000000  0.11111111  0.88888889  1.371742e-03
  0.00000000  0.22222222  0.00000000  1.371742e-03
  0.00000000  0.22222222  0.11111111  1.371742e-03
  0.00000000  0.22222222  0.22222222  1.371742e-03
  0.00000000  0.22222222  0.33333333  1.371742e-03
  0.00000000  0.22222222  0.44444444  1.371742e-03
  0.00000000  0.22222222  0.55555556  1.371742e-03
  0.00000000  0.22222222  0.66666667  1.371742e-03
  0.00000000  0.22222222  0.77777778  1.371742e-03
  0.00000000  0.22222222  0.88888889  1.371742e-03
  0.00000000  0.33333333  0.00000000  1.371742e-03
  0.00000000  0.33333333  0.11111111  1.371742e-03
  0.00000000  0.33333333  0.22222222  1.371742e-03
  0.00000000  0.33333333  0.33333333  1.371742e-03
  0.00000000  0.33333333  0.44444444  1.371742e-03
  0.00000000  0.33333333  0.55555556  1.371742e-03
  0.00000000  0.33333333  0.66666667  1.371742e-03
  0.00000000  0.33333333  0.77777778  1.371742e-03
  0.00000000  0.33333333  0.88888889  1.371742e-03
  0.00000000  0.44444444  0.00000000  1.371742e-03
  0.00000000  0.44444444  0.11111111  1.371742e-03
  0.00000000  0.44444444  0.22222222  1.371742e-03
  0.00000000  0.44444444  0.33333333  1.371742e-03
  0.00000000  0.44444444  0.44444444  1.371742e-03
  0.00000000  0.44444444  0.55555556  1.371742e-03
  0.00000000  0.44444444  0.66666667  1.371742e-03
  0.00000000  0.44444444  0.77777778  1.371742e-03
  0.00000000  0.44444444  0.88888889  1.371742e-03
  0.00000000  0.55555556  0.00000000  1.371742e-03
  0.00000000  0.55555556  0.11111111  1.371742e-03
  0.00000000  0.55555556  0.22222222  1.371742e-03
  0.00000000  0.55555556  0.33333333  1.371742e-03
  0.00000000  0.55555556  0.44444444  1.371742e-03
  0.00000000  0.55555556  0.55555556  1.371742e-03
  0.00000000  0.55555556  0.66666667  1.371742e-03
  0.00000000  0.55555556  0.77777778  1.371742e-03
  0.00000000  0.55555556  0.88888889  1.371742e-03
  0.00000000  0.66666667  0.00000000  1.371742e-03
  0.00000000  0.66666667  0.11111111  1.371742e-03
  0.00000000  0.66666667  0.22222222  1.371742e-03
  0.00000000  0.66666667  0.33333333  1.371742e-03
  0.00000000  0.66666667  0.44444444  1.371742e-03
  0.00000000  0.66666667  0.55555556  1.371742e-03
  0.00000000  0.66666667  0.66666667  1.371742e-03
  0.00000000  0.66666667  0.77777778  1.371742e-03
  0.00000000  0.66666667  0.88888889  1.371742e-03
  0.00000000  0.77777778  0.00000000  1.371742e-03
  0.00000000  0.77777778  0.11111111  1.371742e-03
  0.00000000  0.77777778  0.22222222  1.371742e-03
  0.00000000  0.77777778  0.33333333  1.371742e-03
  0.00000000  0.77777778  0.44444444  1.371742e-03
  0.00000000  0.77777778  0.55555556  1.371742e-03
  0.00000000  0.77777778  0.66666667  1.371742e-03
  0.00000000  0.77777778  0.77777778  1.371742e-03
  0.00000000  0.77777778  0.88888889  1.371742e-03
  0.00000000  0.88888889  0.00000000  1.371742e-03
  0.00000000  0.88888889  0.11111111  1.371742e-03
  0.00000000  0.88888889  0.22222222  1.371742e-03
  0.00000000  0.88888889  0.33333333  1.371742e-03
  0.00000000  0.88888889  0.44444444  1.371742e-03
  0.00000000  0.88888889  0.55555556  1.371742e-03
  0.00000000  0.88888889  0.66666667  1.371742e-03
  0.00000000  0.88888889  0.77777778  1.371742e-03
  0.00000000  0.88888889  0.88888889  1.371742e-03
  0.11111111  0.00000000  0.00000000  1.371742e-03
  0.11111111  0.00000000  0.11111111  1.371742e-03
  0.11111111  0.00000000  0.22222222  1.371742e-03
  0.11111111  0.00000000  0.33333333  1.371742e-03
  0.11111111  0.00000000  0.44444444  1.371742e-03
  0.11111111  0.00000000  0.55555556  1.371742e-03
  0.11111111  0.00000000  0.66666667  1.371742e-03
  0.11111111  0.00000000  0.77777778  1.371742e-03
  0.11111111  0.00000000  0.88888889  1.371742e-03
  0.11111111  0.11111111  0.00000000  1.371742e-03
  0.11111111  0.11111111  0.11111111  1.371742e-03
  0.11111111  0.11111111  0.22222222  1.371742e-03
  0.11111111  0.11111111  0.33333333  1.371742e-03
  0.11111111  0.11111111  0.44444444  1.371742e-03
  0.11111111  0.11111111  0.55555556  1.371742e-03
  0.11111111  0.11111111  0.66666667  1.371742e-03
  0.11111111  0.11111111  0.77777778  1.371742e-03
  0.11111111  0.11111111  0.88888889  1.371742e-03
  0.11111111  0.22222222  0.00000000  1.371742e-03
  0.11111111  0.22222222  0.11111111  1.371742e-03
  0.11111111  0.22222222  0.22222222  1.371742e-03
  0.11111111  0.22222222  0.33333333  1.371742e-03
  0.11111111  0.22222222  0.44444444  1.371742e-03
  0.11111111  0.22222222  0.55555556  1.371742e-03
  0.11111111  0.22222222  0.66666667  1.371742e-03
  0.11111111  0.22222222  0.77777778  1.371742e-03
  0.11111111  0.22222222  0.88888889  1.371742e-03
  0.11111111  0.33333333  0.00000000  1.371742e-03
  0.11111111  0.33333333  0.11111111  1.371742e-03
  0.11111111  0.33333333  0.22222222  1.371742e-03
  0.11111111  0.33333333  0.33333333  1.371742e-03
  0.11111111  0.33333333  0.44444444  1.371742e-03
  0.11111111  0.33333333  0.55555556  1.371742e-03
  0.11111111  0.33333333  0.66666667  1.371742e-03
  0.11111111  0.33333333  0.77777778  1.371742e-03
  0.11111111  0.33333333  0.88888889  1.371742e-03
  0.11111111  0.44444444  0.00000000  1.371742e-03
  0.11111111  0.44444444  0.11111111  1.371742e-03
  0.11111111  0.44444444  0.22222222  1.371742e-03
  0.11111111  0.44444444  0.33333333  1.371742e-03
  0.11111111  0.44444444  0.44444444  1.371742e-03
  0.11111111  0.44444444  0.55555556  1.371742e-03
  0.11111111  0.44444444  0.66666667  1.371742e-03
  0.11111111  0.44444444  0.77777778  1.371742e-03
  0.11111111  0.44444444  0.88888889  1.371742e-03
  0.11111111  0.55555556  0.00000000  1.371742e-03
  0.11111111  0.55555556  0.11111111  1.371742e-03
  0.11111111  0.55555556  0.22222222  1.371742e-03
  0.11111111  0.55555556  0.33333333  1.371742e-03
  0.11111111  0.55555556  0.44444444  1.371742e-03
  0.11111111  0.55555556  0.55555556  1.371742e-03
  0.11111111  0.55555556  0.66666667  1.371742e-03
  0.11111111  0.55555556  0.77777778  1.371742e-03
  0.11111111  0.55555556  0.88888889  1.371742e-03
  0.11111111  0.66666667  0.00000000  1.371742e-03
  0.11111111  0.66666667  0.11111111  1.371742e-03
  0.11111111  0.66666667  0.22222222  1.371742e-03
  0.11111111  0.66666667  0.33333333  1.371742e-03
  0.11111111  0.66666667  0.44444444  1.371742e-03
  0.11111111  0.66666667  0.55555556  1.371742e-03
  0.11111111  0.66666667  0.66666667  1.371742e-03
  0.11111111  0.66666667  0.77777778  1.371742e-03
  0.11111111  0.66666667  0.88888889  1.371742e-03
  0.11111111  0.77777778  0.00000000  1.371742e-03
  0.11111111  0.77777778  0.11111111  1.371742e-03
  0.11111111  0.77777778  0.22222222  1.371742e-03
  0.11111111  0.77777778  0.33333333  1.371742e-03
  0.11111111  0.77777778  0.44444444  1.371742e-03
  0.11111111  0.77777778  0.55555556  1.371742e-03
  0.11111111  0.77777778  0.66666667  1.371742e-03
  0.11111111  0.77777778  0.77777778  1.371742e-03
  0.11111111  0.77777778  0.88888889  1.371742e-03
  0.11111111  0.88888889  0.00000000  1.371742e-03
  0.11111111  0.88888889  0.11111111  1.371742e-03
  0.11111111  0.88888889  0.22222222  1.371742e-03
  0.11111111  0.88888889  0.33333333  1.371742e-03
  0.11111111  0.88888889  0.44444444  1.371742e-03
  0.11111111  0.88888889  0.55555556  1.371742e-03
  0.11111111  0.88888889  0.66666667  1.371742e-03
  0.11111111  0.88888889  0.77777778  1.371742e-03
  0.11111111  0.88888889  0.88888889  1.371742e-03
  0.22222222  0.00000000  0.00000000  1.371742e-03
  0.22222222  0.00000000  0.11111111  1.371742e-03
  0.22222222  0.00000000  0.22222222  1.371742e-03
  0.22222222  0.00000000  0.33333333  1.371742e-03
  0.22222222  0.00000000  0.44444444  1.371742e-03
  0.22222222  0.00000000  0.55555556  1.371742e-03
  0.22222222  0.00000000  0.66666667  1.371742e-03
  0.22222222  0.00000000  0.77777778  1.371742e-03
  0.22222222  0.00000000  0.88888889  1.371742e-03
  0.22222222  0.11111111  0.00000000  1.371742e-03
  0.22222222  0.11111111  0.11111111  1.371742e-03
  0.22222222  0.11111111  0.22222222  1.371742e-03
  0.22222222  0.11111111  0.33333333  1.371742e-03
  0.22222222  0.11111111  0.44444444  1.371742e-03
  0.22222222  0.11111111  0.55555556  1.371742e-03
  0.22222222  0.11111111  0.66666667  1.371742e-03
  0.22222222  0.11111111  0.77777778  1.371742e-03
  0.22222222  0.11111111  0.88888889  1.371742e-03
  0.22222222  0.22222222  0.00000000  1.371742e-03
  0.22222222  0.22222222  0.11111111  1.371742e-03
  0.22222222  0.22222222  0.22222222  1.371742e-03
  0.22222222  0.22222222  0.33333333  1.371742e-03
  0.22222222  0.22222222  0.44444444  1.371742e-03
  0.22222222  0.22222222  0.55555556  1.371742e-03
  0.22222222  0.22222222  0.66666667  1.371742e-03
  0.22222222  0.22222222  0.77777778  1.371742e-03
  0.22222222  0.22222222  0.88888889  1.371742e-03
  0.22222222  0.33333333  0.00000000  1.371742e-03
  0.22222222  0.33333333  0.11111111  1.371742e-03
  0.22222222  0.33333333  0.22222222  1.371742e-03
  0.22222222  0.33333333  0.33333333  1.371742e-03
  0.22222222  0.33333333  0.44444444  1.371742e-03
  0.22222222  0.33333333  0.55555556  1.371742e-03
  0.22222222  0.33333333  0.66666667  1.371742e-03
  0.22222222  0.33333333  0.77777778  1.371742e-03
  0.22222222  0.33333333  0.88888889  1.371742e-03
  0.22222222  0.44444444  0.00000000  1.371742e-03
  0.22222222  0.44444444  0.11111111  1.371742e-03
  0.22222222  0.44444444  0.22222222  1.371742e-03
  0.22222222  0.44444444  0.33333333  1.371742e-03
  0.22222222  0.44444444  0.44444444  1.371742e-03
  0.22222222  0.44444444  0.55555556  1.371742e-03
  0.22222222  0.44444444  0.66666667  1.371742e-03
  0.22222222  0.44444444  0.77777778  1.371742e-03
  0.22222222  0.44444444  0.88888889  1.371742e-03
  0.22222222  0.55555556  0.00000000  1.371742e-03
  0.22222222  0.55555556  0.11111111  1.371742e-03
  0.22222222  0.55555556  0.22222222  1.371742e-03
  0.22222222  0.55555556  0.33333333  1.371742e-03
  0.22222222  0.55555556  0.44444444  1.371742e-03
  0.22222222  0.55555556  0.55555556  1.371742e-03
  0.22222222  0.55555556  0.66666667  1.371742e-03
  0.22222222  0.55555556  0.77777778  1.371742e-03
  0.22222222  0.55555556  0.88888889  1.371742e-03
  0.22222222  0.66666667  0.00000000  1.371742e-03
  0.22222222  0.66666667  0.11111111  1.371742e-03
  0.22222222  0.66666667  0.22222222  1.371742e-03
  0.22222222  0.66666667  0.33333333  1.371742e-03
  0.22222222  0.66666667  0.44444444  1.371742e-03
  0.22222222  0.66666667  0.55555556  1.371742e-03
  0.22222222  0.66666667  0.66666667  1.371742e-03
  0.22222222  0.66666667  0.77777778  1.371742e-03
  0.22222222  0.66666667  0.88888889  1.371742e-03
  0.22222222  0.77777778  0.00000000  1.371742e-03
  0.22222222  0.77777778  0.11111111  1.371742e-03
  0.22222222  0.77777778  0.22222222  1.371742e-03
  0.22222222  0.77777778  0.33333333  1.371742e-03
  0.22222222  0.77777778  0.44444444  1.371742e-03
  0.22222222  0.77777778  0.55555556  1.371742e-03
  0.22222222  0.77777778  0.66666667  1.371742e-03
  0.22222222  0.77777778  0.77777778  1.371742e-03
  0.22222222  0.77777778  0.88888889  1.371742e-03
  0.22222222  0.88888889  0.00000000  1.371742e-03
  0.22222222  0.88888889  0.11111111  1.371742e-03
  0.22222222  0.88888889  0.22222222  1.371742e-03
  0.22222222  0.88888889  0.33333333  1.371742e-03
  0.22222222  0.88888889  0.44444444  1.371742e-03
  0.22222222  0.88888889  0.55555556  1.371742e-03
  0.22222222  0.88888889  0.66666667  1.371742e-03
  0.22222222  0.88888889  0.77777778  1.371742e-03
  0.22222222  0.88888889  0.88888889  1.371742e-03
  0.33333333  0.00000000  0.00000000  1.371742e-03
  0.33333333  0.00000000  0.11111111  1.371742e-03
  0.33333333  0.00000000  0.22222222  1.371742e-03
  0.33333333  0.00000000  0.33333333  1.371742e-03
  0.33333333  0.00000000  0.44444444  1.371742e-03
  0.33333333  0.00000000  0.55555556  1.371742e-03
  0.33333333  0.00000000  0.66666667  1.371742e-03
  0.33333333  0.00000000  0.77777778  1.371742e-03
  0.33333333  0.00000000  0.88888889  1.371742e-03
  0.33333333  0.11111111  0.00000000  1.371742e-03
  0.33333333  0.11111111  0.11111111  1.371742e-03
  0.33333333  0.11111111  0.22222222  1.371742e-03
  0.33333333  0.11111111  0.33333333  1.371742e-03
  0.33333333  0.11111111  0.44444444  1.371742e-03
  0.33333333  0.11111111  0.55555556  1.371742e-03
  0.33333333  0.11111111  0.66666667  1.371742e-03
  0.33333333  0.11111111  0.77777778  1.371742e-03
  0.33333333  0.11111111  0.88888889  1.371742e-03
  0.33333333  0.22222222  0.00000000  1.371742e-03
  0.33333333  0.22222222  0.11111111  1.371742e-03
  0.33333333  0.22222222  0.22222222  1.371742e-03
  0.33333333  0.22222222  0.33333333  1.371742e-03
  0.33333333  0.22222222  0.44444444  1.371742e-03
  0.33333333  0.22222222  0.55555556  1.371742e-03
  0.33333333  0.22222222  0.66666667  1.371742e-03
  0.33333333  0.22222222  0.77777778  1.371742e-03
  0.33333333  0.22222222  0.88888889  1.371742e-03
  0.33333333  0.33333333  0.00000000  1.371742e-03
  0.33333333  0.33333333  0.11111111  1.371742e-03
  0.33333333  0.33333333  0.22222222  1.371742e-03
  0.33333333  0.33333333  0.33333333  1.371742e-03
  0.33333333  0.33333333  0.44444444  1.371742e-03
  0.33333333  0.33333333  0.55555556  1.371742e-03
  0.33333333  0.33333333  0.66666667  1.371742e-03
  0.33333333  0.33333333  0.77777778  1.371742e-03
  0.33333333  0.33333333  0.88888889  1.371742e-03
  0.33333333  0.44444444  0.00000000  1.371742e-03
  0.33333333  0.44444444  0.11111111  1.371742e-03
  0.33333333  0.44444444  0.22222222  1.371742e-03
  0.33333333  0.44444444  0.33333333  1.371742e-03
  0.33333333  0.44444444  0.44444444  1.371742e-03
  0.33333333  0.44444444  0.55555556  1.371742e-03
  0.33333333  0.44444444  0.66666667  1.371742e-03
  0.33333333  0.44444444  0.77777778  1.371742e-03
  0.33333333  0.44444444  0.88888889  1.371742e-03
  0.33333333  0.55555556  0.00000000  1.371742e-03
  0.33333333  0.55555556  0.11111111  1.371742e-03
  0.33333333  0.55555556  0.22222222  1.371742e-03
  0.33333333  0.55555556  0.33333333  1.371742e-03
  0.33333333  0.55555556  0.44444444  1.371742e-03
  0.33333333  0.55555556  0.55555556  1.371742e-03
  0.33333333  0.55555556  0.66666667  1.371742e-03
  0.33333333  0.55555556  0.77777778  1.371742e-03
  0.33333333  0.55555556  0.88888889  1.371742e-03
  0.33333333  0.66666667  0.00000000  1.371742e-03
  0.33333333  0.66666667  0.11111111  1.371742e-03
  0.33333333  0.66666667  0.22222222  1.371742e-03
  0.33333333  0.66666667  0.33333333  1.371742e-03
  0.33333333  0.66666667  0.44444444  1.371742e-03
  0.33333333  0.66666667  0.55555556  1.371742e-03
  0.33333333  0.66666667  0.66666667  1.371742e-03
  0.33333333  0.66666667  0.77777778  1.371742e-03
  0.33333333  0.66666667  0.88888889  1.371742e-03
  0.33333333  0.77777778  0.00000000  1.371742e-03
  0.33333333  0.77777778  0.11111111  1.371742e-03
  0.33333333  0.77777778  0.22222222  1.371742e-03
  0.33333333  0.77777778  0.33333333  1.371742e-03
  0.33333333  0.77777778  0.44444444  1.371742e-03
  0.33333333  0.77777778  0.55555556  1.371742e-03
  0.33333333  0.77777778  0.66666667  1.371742e-03
  0.33333333  0.77777778  0.77777778  1.371742e-03
  0.33333333  0.77777778  0.88888889  1.371742e-03
  0.33333333  0.88888889  0.00000000  1.371742e-03
  0.33333333  0.88888889  0.11111111  1.371742e-03
  0.33333333  0.88888889  0.22222222  1.371742e-03
  0.33333333  0.88888889  0.33333333  1.371742e-03
  0.33333333  0.88888889  0.44444444  1.371742e-03
  0.33333333  0.88888889  0.55555556  1.371742e-03
  0.33333333  0.88888889  0.66666667  1.371742e-03
  0.33333333  0.88888889  0.77777778  1.371742e-03
  0.33333333  0.88888889  0.88888889  1.371742e-03
  0.44444444  0.00000000  0.00000000  1.371742e-03
  0.44444444  0.00000000  0.11111111  1.371742e-03
  0.44444444  0.00000000  0.22222222  1.371742e-03
  0.44444444  0.00000000  0.33333333  1.371742e-03
  0.44444444  0.00000000  0.44444444  1.371742e-03
  0.44444444  0.00000000  0.55555556  1.371742e-03
  0.44444444  0.00000000  0.66666667  1.371742e-03
  0.44444444  0.00000000  0.77777778  1.371742e-03
  0.44444444  0.00000000  0.88888889  1.371742e-03
  0.44444444  0.11111111  0.00000000  1.371742e-03
  0.44444444  0.11111111  0.11111111  1.371742e-03
  0.44444444  0.11111111  0.22222222  1.371742e-03
  0.44444444  0.11111111  0.33333333  1.371742e-03
  0.44444444  0.11111111  0.44444444  1.371742e-03
  0.44444444  0.11111111  0.55555556  1.371742e-03
  0.44444444  0.11111111  0.66666667  1.371742e-03
  0.44444444  0.11111111  0.77777778  1.371742e-03
  0.44444444  0.11111111  0.88888889  1.371742e-03
  0.44444444  0.22222222  0.00000000  1.371742e-03
  0.44444444  0.22222222  0.11111111  1.371742e-03
  0.44444444  0.22222222  0.22222222  1.371742e-03
  0.44444444  0.22222222  0.33333333  1.371742e-03
  0.44444444  0.22222222  0.44444444  1.371742e-03
  0.44444444  0.22222222  0.55555556  1.371742e-03
  0.44444444  0.22222222  0.66666667  1.371742e-03
  0.44444444  0.22222222  0.77777778  1.371742e-03
  0.44444444  0.22222222  0.88888889  1.371742e-03
  0.44444444  0.33333333  0.00000000  1.371742e-03
  0.44444444  0.33333333  0.11111111  1.371742e-03
  0.44444444  0.33333333  0.22222222  1.371742e-03
  0.44444444  0.33333333  0.33333333  1.371742e-03
  0.44444444  0.33333333  0.44444444  1.371742e-03
  0.44444444  0.33333333  0.55555556  1.371742e-03
  0.44444444  0.33333333  0.66666667  1.371742e-03
  0.44444444  0.33333333  0.77777778  1.371742e-03
  0.44444444  0.33333333  0.88888889  1.371742e-03
  0.44444444  0.44444444  0.00000000  1.371742e-03
  0.44444444  0.44444444  0.11111111  1.371742e-03
  0.44444444  0.44444444  0.22222222  1.371742e-03
  0.44444444  0.44444444  0.33333333  1.371742e-03
  0.44444444  0.44444444  0.44444444  1.371742e-03
  0.44444444  0.44444444  0.55555556  1.371742e-03
  0.44444444  0.44444444  0.66666667  1.371742e-03
  0.44444444  0.44444444  0.77777778  1.371742e-03
  0.44444444  0.44444444  0.88888889  1.371742e-03
  0.44444444  0.55555556  0.00000000  1.371742e-03
  0.44444444  0.55555556  0.11111111  1.371742e-03
  0.44444444  0.55555556  0.22222222  1.371742e-03
  0.44444444  0.55555556  0.33333333  1.371742e-03
  0.44444444  0.55555556  0.44444444  1.371742e-03
  0.44444444  0.55555556  0.55555556  1.371742e-03
  0.44444444  0.55555556  0.66666667  1.371742e-03
  0.44444444  0.55555556  0.77777778  1.371742e-03
  0.44444444  0.55555556  0.88888889  1.371742e-03
  0.44444444  0.66666667  0.00000000  1.371742e-03
  0.44444444  0.66666667  0.11111111  1.371742e-03
  0.44444444  0.66666667  0.22222222  1.371742e-03
  0.44444444  0.66666667  0.33333333  1.371742e-03
  0.44444444  0.66666667  0.44444444  1.371742e-03
  0.44444444  0.66666667  0.55555556  1.371742e-03
  0.44444444  0.66666667  0.66666667  1.371742e-03
  0.44444444  0.66666667  0.77777778  1.371742e-03
  0.44444444  0.66666667  0.88888889  1.371742e-03
  0.44444444  0.77777778  0.00000000  1.371742e-03
  0.44444444  0.77777778  0.11111111  1.371742e-03
  0.44444444  0.77777778  0.22222222  1.371742e-03
  0.44444444  0.77777778  0.33333333  1.371742e-03
  0.44444444  0.77777778  0.44444444  1.371742e-03
  0.44444444  0.77777778  0.55555556  1.371742e-03
  0.44444444  0.77777778  0.66666667  1.371742e-03
  0.44444444  0.77777778  0.77777778  1.371742e-03
  0.44444444  0.77777778  0.88888889  1.371742e-03
  0.44444444  0.88888889  0.00000000  1.371742e-03
  0.44444444  0.88888889  0.11111111  1.371742e-03
  0.44444444  0.88888889  0.22222222  1.371742e-03
  0.44444444  0.88888889  0.33333333  1.371742e-03
  0.44444444  0.88888889  0.44444444  1.371742e-03
  0.44444444  0.88888889  0.55555556  1.371742e-03
  0.44444444  0.88888889  0.66666667  1.371742e-03
  0.44444444  0.88888889  0.77777778  1.371742e-03
  0.44444444  0.88888889  0.88888889  1.371742e-03
  0.55555556  0.00000000  0.00000000  1.371742e-03
  0.55555556  0.00000000  0.11111111  1.371742e-03
  0.55555556  0.00000000  0.22222222  1.371742e-03
  0.55555556  0.00000000  0.33333333  1.371742e-03
  0.55555556  0.00000000  0.44444444  1.371742e-03
  0.55555556  0.00000000  0.55555556  1.371742e-03
  0.55555556  0.00000000  0.66666667  1.371742e-03
  0.55555556  0.00000000  0.77777778  1.371742e-03
  0.55555556  0.00000000  0.88888889  1.371742e-03
  0.55555556  0.11111111  0.00000000  1.371742e-03
  0.55555556  0.11111111  0.11111111  1.371742e-03
  0.55555556  0.11111111  0.22222222  1.371742e-03
  0.55555556  0.11111111  0.33333333  1.371742e-03
  0.55555556  0.11111111  0.44444444  1.371742e-03
  0.55555556  0.11111111  0.55555556  1.371742e-03
  0.55555556  0.11111111  0.66666667  1.371742e-03
  0.55555556  0.11111111  0.77777778  1.371742e-03
  0.55555556  0.11111111  0.88888889  1.371742e-03
  0.55555556  0.22222222  0.00000000  1.371742e-03
  0.55555556  0.22222222  0.11111111  1.371742e-03
  0.55555556  0.22222222  0.22222222  1.371742e-03
  0.55555556  0.22222222  0.33333333  1.371742e-03
  0.55555556  0.22222222  0.44444444  1.371742e-03
  0.55555556  0.22222222  0.55555556  1.371742e-03
  0.55555556  0.22222222  0.66666667  1.371742e-03
  0.55555556  0.22222222  0.77777778  1.371742e-03
  0.55555556  0.22222222  0.88888889  1.371742e-03
  0.55555556  0.33333333  0.00000000  1.371742e-03
  0.55555556  0.33333333  0.11111111  1.371742e-03
  0.55555556  0.33333333  0.22222222  1.371742e-03
  0.55555556  0.33333333  0.33333333  1.371742e-03
  0.55555556  0.33333333  0.44444444  1.371742e-03
  0.55555556  0.33333333  0.55555556  1.371742e-03
  0.55555556  0.33333333  0.66666667  1.371742e-03
  0.55555556  0.33333333  0.77777778  1.371742e-03
  0.55555556  0.33333333  0.88888889  1.371742e-03
  0.55555556  0.44444444  0.00000000  1.371742e-03
  0.55555556  0.44444444  0.11111111  1.371742e-03
  0.55555556  0.44444444  0.22222222  1.371742e-03
  0.55555556  0.44444444  0.33333333  1.371742e-03
  0.55555556  0.44444444  0.44444444  1.371742e-03
  0.55555556  0.44444444  0.55555556  1.371742e-03
  0.55555556  0.44444444  0.66666667  1.371742e-03
  0.55555556  0.44444444  0.77777778  1.371742e-03
  0.55555556  0.44444444  0.88888889  1.371742e-03
  0.55555556  0.55555556  0.00000000  1.371742e-03
  0.55555556  0.55555556  0.11111111  1.371742e-03
  0.55555556  0.55555556  0.22222222  1.371742e-03
  0.55555556  0.55555556  0.33333333  1.371742e-03
  0.55555556  0.55555556  0.44444444  1.371742e-03
  0.55555556  0.55555556  0.55555556  1.371742e-03
  0.55555556  0.55555556  0.66666667  1.371742e-03
  0.55555556  0.55555556  0.77777778  1.371742e-03
  0.55555556  0.55555556  0.88888889  1.371742e-03
  0.55555556  0.66666667  0.00000000  1.371742e-03
  0.55555556  0.66666667  0.11111111  1.371742e-03
  0.55555556  0.66666667  0.22222222  1.371742e-03
  0.55555556  0.66666667  0.33333333  1.371742e-03
  0.55555556  0.66666667  0.44444444  1.371742e-03
  0.55555556  0.66666667  0.55555556  1.371742e-03
  0.55555556  0.66666667  0.66666667  1.371742e-03
  0.55555556  0.66666667  0.77777778  1.371742e-03
  0.55555556  0.66666667  0.88888889  1.371742e-03
  0.55555556  0.77777778  0.00000000  1.371742e-03
  0.55555556  0.77777778  0.11111111  1.371742e-03
  0.55555556  0.77777778  0.22222222  1.371742e-03
  0.55555556  0.77777778  0.33333333  1.371742e-03
  0.55555556  0.77777778  0.44444444  1.371742e-03
  0.55555556  0.77777778  0.55555556  1.371742e-03
  0.55555556  0.77777778  0.66666667  1.371742e-03
  0.55555556  0.77777778  0.77777778  1.371742e-03
  0.55555556  0.77777778  0.88888889  1.371742e-03
  0.55555556  0.88888889  0.00000000  1.371742e-03
  0.55555556  0.88888889  0.11111111  1.371742e-03
  0.55555556  0.88888889  0.22222222  1.371742e-03
  0.55555556  0.88888889  0.33333333  1.371742e-03
  0.55555556  0.88888889  0.44444444  1.371742e-03
  0.55555556  0.88888889  0.55555556  1.371742e-03
  0.55555556  0.88888889  0.66666667  1.371742e-03
  0.55555556  0.88888889  0.77777778  1.371742e-03
  0.55555556  0.88888889  0.88888889  1.371742e-03
  0.66666667  0.00000000  0.00000000  1.371742e-03
  0.66666667  0.00000000  0.11111111  1.371742e-03
  0.66666667  0.00000000  0.22222222  1.371742e-03
  0.66666667  0.00000000  0.33333333  1.371742e-03
  0.66666667  0.00000000  0.44444444  1.371742e-03
  0.66666667  0.00000000  0.55555556  1.371742e-03
  0.66666667  0.00000000  0.66666667  1.371742e-03
  0.66666667  0.00000000  0.77777778  1.371742e-03
  0.66666667  0.00000000  0.88888889  1.371742e-03
  0.66666667  0.11111111  0.00000000  1.371742e-03
  0.66666667  0.11111111  0.11111111  1.371742e-03
  0.66666667  0.11111111  0.22222222  1.371742e-03
  0.66666667  0.11111111  0.33333333  1.371742e-03
  0.66666667  0.11111111  0.44444444  1.371742e-03
  0.66666667  0.11111111  0.55555556  1.371742e-03
  0.66666667  0.11111111  0.66666667  1.371742e-03
  0.66666667  0.11111111  0.77777778  1.371742e-03
  0.66666667  0.11111111  0.88888889  1.371742e-03
  0.66666667  0.22222222  0.00000000  1.371742e-03
  0.66666667  0.22222222  0.11111111  1.371742e-03
  0.66666667  0.22222222  0.22222222  1.371742e-03
  0.66666667  0.22222222  0.33333333  1.371742e-03
  0.66666667  0.22222222  0.44444444  1.371742e-03
  0.66666667  0.22222222  0.55555556  1.371742e-03
  0.66666667  0.22222222  0.66666667  1.371742e-03
  0.66666667  0.22222222  0.77777778  1.371742e-03
  0.66666667  0.22222222  0.88888889  1.371742e-03
  0.66666667  0.33333333  0.00000000  1.371742e-03
  0.66666667  0.33333333  0.11111111  1.371742e-03
  0.66666667  0.33333333  0.22222222  1.371742e-03
  0.66666667  0.33333333  0.33333333  1.371742e-03
  0.66666667  0.33333333  0.44444444  1.371742e-03
  0.66666667  0.33333333  0.55555556  1.371742e-03
  0.66666667  0.33333333  0.66666667  1.371742e-03
  0.66666667  0.33333333  0.77777778  1.371742e-03
  0.66666667  0.33333333  0.88888889  1.371742e-03
  0.66666667  0.44444444  0.00000000  1.371742e-03
  0.66666667  0.44444444  0.11111111  1.371742e-03
  0.66666667  0.44444444  0.22222222  1.371742e-03
  0.66666667  0.44444444  0.33333333  1.371742e-03
  0.66666667  0.44444444  0.44444444  1.371742e-03
  0.66666667  0.44444444  0.55555556  1.371742e-03
  0.66666667  0.44444444  0.66666667  1.371742e-03
  0.66666667  0.44444444  0.77777778  1.371742e-03
  0.66666667  0.44444444  0.88888889  1.371742e-03
  0.66666667  0.55555556  0.00000000  1.371742e-03
  0.66666667  0.55555556  0.11111111  1.371742e-03
  0.66666667  0.55555556  0.22222222  1.371742e-03
  0.66666667  0.55555556  0.33333333  1.371742e-03
  0.66666667  0.55555556  0.44444444  1.371742e-03
  0.66666667  0.55555556  0.55555556  1.371742e-03
  0.66666667  0.55555556  0.66666667  1.371742e-03
  0.66666667  0.55555556  0.77777778  1.371742e-03
  0.66666667  0.55555556  0.88888889  1.371742e-03
  0.66666667  0.66666667  0.00000000  1.371742e-03
  0.66666667  0.66666667  0.11111111  1.371742e-03
  0.66666667  0.66666667  0.22222222  1.371742e-03
  0.66666667  0.66666667  0.33333333  1.371742e-03
  0.66666667  0.66666667  0.44444444  1.371742e-03
  0.66666667  0.66666667  0.55555556  1.371742e-03
  0.66666667  0.66666667  0.66666667  1.371742e-03
  0.66666667  0.66666667  0.77777778  1.371742e-03
  0.66666667  0.66666667  0.88888889  1.371742e-03
  0.66666667  0.77777778  0.00000000  1.371742e-03
  0.66666667  0.77777778  0.11111111  1.371742e-03
  0.66666667  0.77777778  0.22222222  1.371742e-03
  0.66666667  0.77777778  0.33333333  1.371742e-03
  0.66666667  0.77777778  0.44444444  1.371742e-03
  0.66666667  0.77777778  0.55555556  1.371742e-03
  0.66666667  0.77777778  0.66666667  1.371742e-03
  0.66666667  0.77777778  0.77777778  1.371742e-03
  0.66666667  0.77777778  0.88888889  1.371742e-03
  0.66666667  0.88888889  0.00000000  1.371742e-03
  0.66666667  0.88888889  0.11111111  1.371742e-03
  0.66666667  0.88888889  0.22222222  1.371742e-03
  0.66666667  0.88888889  0.33333333  1.371742e-03
  0.66666667  0.88888889  0.44444444  1.371742e-03
  0.66666667  0.88888889  0.55555556  1.371742e-03
  0.66666667  0.88888889  0.66666667  1.371742e-03
  0.66666667  0.88888889  0.77777778  1.371742e-03
  0.66666667  0.88888889  0.88888889  1.371742e-03
  0.77777778  0.00000000  0.00000000  1.371742e-03
  0.77777778  0.00000000  0.11111111  1.371742e-03
  0.77777778  0.00000000  0.22222222  1.371742e-03
  0.77777778  0.00000000  0.33333333  1.371742e-03
  0.77777778  0.00000000  0.44444444  1.371742e-03
  0.77777778  0.00000000  0.55555556  1.371742e-03