&inputpp
  outdir = './out'
  prefix = 'cu'
  seedname = 'cu'
/
