&INPUT
  fildyn = 'cu.dyn'
  flfrc = 'cu.fc'
  zasr = 'simple'
/
