 &control
    calculation = 'scf'
    restart_mode='from_scratch',
    prefix='silicon',
    tstress = .true.
    tprnfor = .true.,
    pseudo_dir = '../../pseudoPotentials/',
    outdir='./out',
 /
 &system
    ibrav = 2
    celldm(1) = 10.2
    nat = 2
    ntyp = 1,
    ecutwfc = 30.
 /
 &electrons
    conv_thr =  1.0d-12
 /
ATOMIC_SPECIES
 Si  28.086  Si.pz-vbc.UPF
ATOMIC_POSITIONS alat
 Si -0.125 -0.125 -0.125
 Si  0.125  0.125  0.125
K_POINTS automatic
6 6 6 0 0 0
