write_tb = true
write_u_matrices = true

bands_plot        = true
bands_plot_format = xmgr

num_bands         = 8
num_wann          = 8
dis_win_max       = 17.d0
dis_froz_max      = 6.4d0
dis_num_iter      = 120
dis_mix_ratio     = 1.d0
exclude_bands = 1-12

num_iter    = 500
num_print_cycles  = 50

! SYSTEM

begin unit_cell_cart
bohr
   5.952943805   0.000000000   0.000000000
  -2.976471904   5.155400564   0.000000000
   0.000000000   0.000000000   9.700662066
end unit_cell_cart

begin atoms_frac
Ga  0.66666666   0.33333333   0.499226000
Ga  0.33333333   0.66666666   0.999226000
N   0.33333333   0.66666666   0.375774000
N   0.66666666   0.33333333   0.875774000
end atoms_frac

begin kpoint_path
G  0.000000  0.000000  0.000000   M  0.500000  0.000000  0.000000
M  0.500000  0.000000  0.000000   K  0.333333  0.333333  0.000000
K  0.333333  0.333333  0.000000   G  0.000000  0.000000  0.000000
G  0.000000  0.000000  0.000000   A  0.000000  0.000000  0.500000
A  0.000000  0.000000  0.500000   L  0.500000  0.000000  0.500000
L  0.500000  0.000000  0.500000   H  0.333333  0.333333  0.500000
H  0.333333  0.333333  0.500000   A  0.000000  0.000000  0.500000
L  0.500000  0.000000  0.500000   M  0.500000  0.000000  0.000000
H  0.333333  0.333333  0.500000   K  0.333333  0.333333  0.000000
end kpoint_path

begin projections
Ga:sp3
end projections

! KPOINTS

mp_grid : 6 6 4

begin kpoints
  0.00000000  0.00000000  0.00000000 
  0.00000000  0.00000000  0.25000000 
  0.00000000  0.00000000  0.50000000 
  0.00000000  0.00000000  0.75000000 
  0.00000000  0.16666667  0.00000000 
  0.00000000  0.16666667  0.25000000 
  0.00000000  0.16666667  0.50000000 
  0.00000000  0.16666667  0.75000000 
  0.00000000  0.33333333  0.00000000 
  0.00000000  0.33333333  0.25000000 
  0.00000000  0.33333333  0.50000000 
  0.00000000  0.33333333  0.75000000 
  0.00000000  0.50000000  0.00000000 
  0.00000000  0.50000000  0.25000000 
  0.00000000  0.50000000  0.50000000 
  0.00000000  0.50000000  0.75000000 
  0.00000000  0.66666667  0.00000000 
  0.00000000  0.66666667  0.25000000 
  0.00000000  0.66666667  0.50000000 
  0.00000000  0.66666667  0.75000000 
  0.00000000  0.83333333  0.00000000 
  0.00000000  0.83333333  0.25000000 
  0.00000000  0.83333333  0.50000000 
  0.00000000  0.83333333  0.75000000 
  0.16666667  0.00000000  0.00000000 
  0.16666667  0.00000000  0.25000000 
  0.16666667  0.00000000  0.50000000 
  0.16666667  0.00000000  0.75000000 
  0.16666667  0.16666667  0.00000000 
  0.16666667  0.16666667  0.25000000 
  0.16666667  0.16666667  0.50000000 
  0.16666667  0.16666667  0.75000000 
  0.16666667  0.33333333  0.00000000 
  0.16666667  0.33333333  0.25000000 
  0.16666667  0.33333333  0.50000000 
  0.16666667  0.33333333  0.75000000 
  0.16666667  0.50000000  0.00000000 
  0.16666667  0.50000000  0.25000000 
  0.16666667  0.50000000  0.50000000 
  0.16666667  0.50000000  0.75000000 
  0.16666667  0.66666667  0.00000000 
  0.16666667  0.66666667  0.25000000 
  0.16666667  0.66666667  0.50000000 
  0.16666667  0.66666667  0.75000000 
  0.16666667  0.83333333  0.00000000 
  0.16666667  0.83333333  0.25000000 
  0.16666667  0.83333333  0.50000000 
  0.16666667  0.83333333  0.75000000 
  0.33333333  0.00000000  0.00000000 
  0.33333333  0.00000000  0.25000000 
  0.33333333  0.00000000  0.50000000 
  0.33333333  0.00000000  0.75000000 
  0.33333333  0.16666667  0.00000000 
  0.33333333  0.16666667  0.25000000 
  0.33333333  0.16666667  0.50000000 
  0.33333333  0.16666667  0.75000000 
  0.33333333  0.33333333  0.00000000 
  0.33333333  0.33333333  0.25000000 
  0.33333333  0.33333333  0.50000000 
  0.33333333  0.33333333  0.75000000 
  0.33333333  0.50000000  0.00000000 
  0.33333333  0.50000000  0.25000000 
  0.33333333  0.50000000  0.50000000 
  0.33333333  0.50000000  0.75000000 
  0.33333333  0.66666667  0.00000000 
  0.33333333  0.66666667  0.25000000 
  0.33333333  0.66666667  0.50000000 
  0.33333333  0.66666667  0.75000000 
  0.33333333  0.83333333  0.00000000 
  0.33333333  0.83333333  0.25000000 
  0.33333333  0.83333333  0.50000000 
  0.33333333  0.83333333  0.75000000 
  0.50000000  0.00000000  0.00000000 
  0.50000000  0.00000000  0.25000000 
  0.50000000  0.00000000  0.50000000 
  0.50000000  0.00000000  0.75000000 
  0.50000000  0.16666667  0.00000000 
  0.50000000  0.16666667  0.25000000 
  0.50000000  0.16666667  0.50000000 
  0.50000000  0.16666667  0.75000000 
  0.50000000  0.33333333  0.00000000 
  0.50000000  0.33333333  0.25000000 
  0.50000000  0.33333333  0.50000000 
  0.50000000  0.33333333  0.75000000 
  0.50000000  0.50000000  0.00000000 
  0.50000000  0.50000000  0.25000000 
  0.50000000  0.50000000  0.50000000 
  0.50000000  0.50000000  0.75000000 
  0.50000000  0.66666667  0.00000000 
  0.50000000  0.66666667  0.25000000 
  0.50000000  0.66666667  0.50000000 
  0.50000000  0.66666667  0.75000000 
  0.50000000  0.83333333  0.00000000 
  0.50000000  0.83333333  0.25000000 
  0.50000000  0.83333333  0.50000000 
  0.50000000  0.83333333  0.75000000 
  0.66666667  0.00000000  0.00000000 
  0.66666667  0.00000000  0.25000000 
  0.66666667  0.00000000  0.50000000 
  0.66666667  0.00000000  0.75000000 
  0.66666667  0.16666667  0.00000000 
  0.66666667  0.16666667  0.25000000 
  0.66666667  0.16666667  0.50000000 
  0.66666667  0.16666667  0.75000000 
  0.66666667  0.33333333  0.00000000 
  0.66666667  0.33333333  0.25000000 
  0.66666667  0.33333333  0.50000000 
  0.66666667  0.33333333  0.75000000 
  0.66666667  0.50000000  0.00000000 
  0.66666667  0.50000000  0.25000000 
  0.66666667  0.50000000  0.50000000 
  0.66666667  0.50000000  0.75000000 
  0.66666667  0.66666667  0.00000000 
  0.66666667  0.66666667  0.25000000 
  0.66666667  0.66666667  0.50000000 
  0.66666667  0.66666667  0.75000000 
  0.66666667  0.83333333  0.00000000 
  0.66666667  0.83333333  0.25000000 
  0.66666667  0.83333333  0.50000000 
  0.66666667  0.83333333  0.75000000 
  0.83333333  0.00000000  0.00000000 
  0.83333333  0.00000000  0.25000000 
  0.83333333  0.00000000  0.50000000 
  0.83333333  0.00000000  0.75000000 
  0.83333333  0.16666667  0.00000000 
  0.83333333  0.16666667  0.25000000 
  0.83333333  0.16666667  0.50000000 
  0.83333333  0.16666667  0.75000000 
  0.83333333  0.33333333  0.00000000 
  0.83333333  0.33333333  0.25000000 
  0.83333333  0.33333333  0.50000000 
  0.83333333  0.33333333  0.75000000 
  0.83333333  0.50000000  0.00000000 
  0.83333333  0.50000000  0.25000000 
  0.83333333  0.50000000  0.50000000 
  0.83333333  0.50000000  0.75000000 
  0.83333333  0.66666667  0.00000000 
  0.83333333  0.66666667  0.25000000 
  0.83333333  0.66666667  0.50000000 
  0.83333333  0.66666667  0.75000000 
  0.83333333  0.83333333  0.00000000 
  0.83333333  0.83333333  0.25000000 
  0.83333333  0.83333333  0.50000000 
  0.83333333  0.83333333  0.75000000 
end kpoints
