&inputpp 
  outdir = "./out"
  prefix = "gan"
  seedname = "gan"
  spin_component = "none"
  write_mmn = .true.
  write_amn = .true.
  write_unk = .false.
/
