&input
  fildyn = "gan.dyn"
  flfrc = "gan.fc"
/
