&input
  fildyn = "silicon.dyn"
  flfrc = "silicon.fc"
/
