write_tb = true
write_u_matrices = true

bands_plot        = true
bands_plot_format = xmgr

num_bands         = 12
num_wann          = 8
dis_win_max       = 17.0
dis_froz_max      = 10.4
dis_num_iter      = 120
dis_mix_ratio     = 1.d0

num_iter          = 500
num_print_cycles  = 50

begin unit_cell_cart
bohr
-5.1000 0.0000 5.1000
 0.0000 5.1000 5.1000
-5.1000 5.1000 0.0000
end unit_cell_cart

begin atoms_frac
Si   0.00  0.00   0.00
Si   0.25  0.25   0.25
End atoms_frac

begin projections
Si : sp3
end projections

begin kpoint_path
L 0.50000  0.50000 0.5000 G 0.00000  0.00000 0.0000
G 0.00000  0.00000 0.0000 X 0.50000  0.00000 0.5000
X 0.50000 -0.50000 0.0000 K 0.37500 -0.37500 0.0000
K 0.37500 -0.37500 0.0000 G 0.00000  0.00000 0.0000
end kpoint_path

mp_grid = 6 6 6

begin kpoints
  0.00000000  0.00000000  0.00000000
  0.00000000  0.00000000  0.16666667
  0.00000000  0.00000000  0.33333333
  0.00000000  0.00000000  0.50000000
  0.00000000  0.00000000  0.66666667
  0.00000000  0.00000000  0.83333333
  0.00000000  0.16666667  0.00000000
  0.00000000  0.16666667  0.16666667
  0.00000000  0.16666667  0.33333333
  0.00000000  0.16666667  0.50000000
  0.00000000  0.16666667  0.66666667
  0.00000000  0.16666667  0.83333333
  0.00000000  0.33333333  0.00000000
  0.00000000  0.33333333  0.16666667
  0.00000000  0.33333333  0.33333333
  0.00000000  0.33333333  0.50000000
  0.00000000  0.33333333  0.66666667
  0.00000000  0.33333333  0.83333333
  0.00000000  0.50000000  0.00000000
  0.00000000  0.50000000  0.16666667
  0.00000000  0.50000000  0.33333333
  0.00000000  0.50000000  0.50000000
  0.00000000  0.50000000  0.66666667
  0.00000000  0.50000000  0.83333333
  0.00000000  0.66666667  0.00000000
  0.00000000  0.66666667  0.16666667
  0.00000000  0.66666667  0.33333333
  0.00000000  0.66666667  0.50000000
  0.00000000  0.66666667  0.66666667
  0.00000000  0.66666667  0.83333333
  0.00000000  0.83333333  0.00000000
  0.00000000  0.83333333  0.16666667
  0.00000000  0.83333333  0.33333333
  0.00000000  0.83333333  0.50000000
  0.00000000  0.83333333  0.66666667
  0.00000000  0.83333333  0.83333333
  0.16666667  0.00000000  0.00000000
  0.16666667  0.00000000  0.16666667
  0.16666667  0.00000000  0.33333333
  0.16666667  0.00000000  0.50000000
  0.16666667  0.00000000  0.66666667
  0.16666667  0.00000000  0.83333333
  0.16666667  0.16666667  0.00000000
  0.16666667  0.16666667  0.16666667
  0.16666667  0.16666667  0.33333333
  0.16666667  0.16666667  0.50000000
  0.16666667  0.16666667  0.66666667
  0.16666667  0.16666667  0.83333333
  0.16666667  0.33333333  0.00000000
  0.16666667  0.33333333  0.16666667
  0.16666667  0.33333333  0.33333333
  0.16666667  0.33333333  0.50000000
  0.16666667  0.33333333  0.66666667
  0.16666667  0.33333333  0.83333333
  0.16666667  0.50000000  0.00000000
  0.16666667  0.50000000  0.16666667
  0.16666667  0.50000000  0.33333333
  0.16666667  0.50000000  0.50000000
  0.16666667  0.50000000  0.66666667
  0.16666667  0.50000000  0.83333333
  0.16666667  0.66666667  0.00000000
  0.16666667  0.66666667  0.16666667
  0.16666667  0.66666667  0.33333333
  0.16666667  0.66666667  0.50000000
  0.16666667  0.66666667  0.66666667
  0.16666667  0.66666667  0.83333333
  0.16666667  0.83333333  0.00000000
  0.16666667  0.83333333  0.16666667
  0.16666667  0.83333333  0.33333333
  0.16666667  0.83333333  0.50000000
  0.16666667  0.83333333  0.66666667
  0.16666667  0.83333333  0.83333333
  0.33333333  0.00000000  0.00000000
  0.33333333  0.00000000  0.16666667
  0.33333333  0.00000000  0.33333333
  0.33333333  0.00000000  0.50000000
  0.33333333  0.00000000  0.66666667
  0.33333333  0.00000000  0.83333333
  0.33333333  0.16666667  0.00000000
  0.33333333  0.16666667  0.16666667
  0.33333333  0.16666667  0.33333333
  0.33333333  0.16666667  0.50000000
  0.33333333  0.16666667  0.66666667
  0.33333333  0.16666667  0.83333333
  0.33333333  0.33333333  0.00000000
  0.33333333  0.33333333  0.16666667
  0.33333333  0.33333333  0.33333333
  0.33333333  0.33333333  0.50000000
  0.33333333  0.33333333  0.66666667
  0.33333333  0.33333333  0.83333333
  0.33333333  0.50000000  0.00000000
  0.33333333  0.50000000  0.16666667
  0.33333333  0.50000000  0.33333333
  0.33333333  0.50000000  0.50000000
  0.33333333  0.50000000  0.66666667
  0.33333333  0.50000000  0.83333333
  0.33333333  0.66666667  0.00000000
  0.33333333  0.66666667  0.16666667
  0.33333333  0.66666667  0.33333333
  0.33333333  0.66666667  0.50000000
  0.33333333  0.66666667  0.66666667
  0.33333333  0.66666667  0.83333333
  0.33333333  0.83333333  0.00000000
  0.33333333  0.83333333  0.16666667
  0.33333333  0.83333333  0.33333333
  0.33333333  0.83333333  0.50000000
  0.33333333  0.83333333  0.66666667
  0.33333333  0.83333333  0.83333333
  0.50000000  0.00000000  0.00000000
  0.50000000  0.00000000  0.16666667
  0.50000000  0.00000000  0.33333333
  0.50000000  0.00000000  0.50000000
  0.50000000  0.00000000  0.66666667
  0.50000000  0.00000000  0.83333333
  0.50000000  0.16666667  0.00000000
  0.50000000  0.16666667  0.16666667
  0.50000000  0.16666667  0.33333333
  0.50000000  0.16666667  0.50000000
  0.50000000  0.16666667  0.66666667
  0.50000000  0.16666667  0.83333333
  0.50000000  0.33333333  0.00000000
  0.50000000  0.33333333  0.16666667
  0.50000000  0.33333333  0.33333333
  0.50000000  0.33333333  0.50000000
  0.50000000  0.33333333  0.66666667
  0.50000000  0.33333333  0.83333333
  0.50000000  0.50000000  0.00000000
  0.50000000  0.50000000  0.16666667
  0.50000000  0.50000000  0.33333333
  0.50000000  0.50000000  0.50000000
  0.50000000  0.50000000  0.66666667
  0.50000000  0.50000000  0.83333333
  0.50000000  0.66666667  0.00000000
  0.50000000  0.66666667  0.16666667
  0.50000000  0.66666667  0.33333333
  0.50000000  0.66666667  0.50000000
  0.50000000  0.66666667  0.66666667
  0.50000000  0.66666667  0.83333333
  0.50000000  0.83333333  0.00000000
  0.50000000  0.83333333  0.16666667
  0.50000000  0.83333333  0.33333333
  0.50000000  0.83333333  0.50000000
  0.50000000  0.83333333  0.66666667
  0.50000000  0.83333333  0.83333333
  0.66666667  0.00000000  0.00000000
  0.66666667  0.00000000  0.16666667
  0.66666667  0.00000000  0.33333333
  0.66666667  0.00000000  0.50000000
  0.66666667  0.00000000  0.66666667
  0.66666667  0.00000000  0.83333333
  0.66666667  0.16666667  0.00000000
  0.66666667  0.16666667  0.16666667
  0.66666667  0.16666667  0.33333333
  0.66666667  0.16666667  0.50000000
  0.66666667  0.16666667  0.66666667
  0.66666667  0.16666667  0.83333333
  0.66666667  0.33333333  0.00000000
  0.66666667  0.33333333  0.16666667
  0.66666667  0.33333333  0.33333333
  0.66666667  0.33333333  0.50000000
  0.66666667  0.33333333  0.66666667
  0.66666667  0.33333333  0.83333333
  0.66666667  0.50000000  0.00000000
  0.66666667  0.50000000  0.16666667
  0.66666667  0.50000000  0.33333333
  0.66666667  0.50000000  0.50000000
  0.66666667  0.50000000  0.66666667
  0.66666667  0.50000000  0.83333333
  0.66666667  0.66666667  0.00000000
  0.66666667  0.66666667  0.16666667
  0.66666667  0.66666667  0.33333333
  0.66666667  0.66666667  0.50000000
  0.66666667  0.66666667  0.66666667
  0.66666667  0.66666667  0.83333333
  0.66666667  0.83333333  0.00000000
  0.66666667  0.83333333  0.16666667
  0.66666667  0.83333333  0.33333333
  0.66666667  0.83333333  0.50000000
  0.66666667  0.83333333  0.66666667
  0.66666667  0.83333333  0.83333333
  0.83333333  0.00000000  0.00000000
  0.83333333  0.00000000  0.16666667
  0.83333333  0.00000000  0.33333333
  0.83333333  0.00000000  0.50000000
  0.83333333  0.00000000  0.66666667
  0.83333333  0.00000000  0.83333333
  0.83333333  0.16666667  0.00000000
  0.83333333  0.16666667  0.16666667
  0.83333333  0.16666667  0.33333333
  0.83333333  0.16666667  0.50000000
  0.83333333  0.16666667  0.66666667
  0.83333333  0.16666667  0.83333333
  0.83333333  0.33333333  0.00000000
  0.83333333  0.33333333  0.16666667
  0.83333333  0.33333333  0.33333333
  0.83333333  0.33333333  0.50000000
  0.83333333  0.33333333  0.66666667
  0.83333333  0.33333333  0.83333333
  0.83333333  0.50000000  0.00000000
  0.83333333  0.50000000  0.16666667
  0.83333333  0.50000000  0.33333333
  0.83333333  0.50000000  0.50000000
  0.83333333  0.50000000  0.66666667
  0.83333333  0.50000000  0.83333333
  0.83333333  0.66666667  0.00000000
  0.83333333  0.66666667  0.16666667
  0.83333333  0.66666667  0.33333333
  0.83333333  0.66666667  0.50000000
  0.83333333  0.66666667  0.66666667
  0.83333333  0.66666667  0.83333333
  0.83333333  0.83333333  0.00000000
  0.83333333  0.83333333  0.16666667
  0.83333333  0.83333333  0.33333333
  0.83333333  0.83333333  0.50000000
  0.83333333  0.83333333  0.66666667
  0.83333333  0.83333333  0.83333333
end kpoints
