 &control
    calculation = 'scf'
    restart_mode='from_scratch',
    prefix='silicon',
    tstress = .true.
    tprnfor = .true.,
    disk_io = 'nowf',
    pseudo_dir = '../../pseudoPotentials/',
    outdir='./out',
 /
 &system
    ibrav = 0
    nat = 2
    ntyp = 1,
    ecutwfc = 30.
 /
 &electrons
    conv_thr =  1.0d-12
 /
ATOMIC_SPECIES
 Si  28.086  Si.pz-vbc.UPF
CELL_PARAMETERS angstrom
   0.00000000   2.73313145   2.73313145
   2.73313145   0.00000000   2.73313145
   2.73313145   2.73313145   0.00000000
ATOMIC_POSITIONS crystal
Si 0.750000000000000  0.750000000000000  0.750000000000000
Si  0.500000000000000  0.500000000000000  0.500000000000000
K_POINTS automatic
6 6 6 0 0 0
