&CONTROL
  calculation = 'scf',
  outdir = './out/',
  wf_collect = .true.
  tstress = .true.
  tprnfor = .true.
  pseudo_dir = '../'
  restart_mode = 'from_scratch'
  prefix = 'cu'
/
&SYSTEM
  ibrav = 0,
  nat   = 1,
  ntyp  = 1,
  occupations = 'smearing',
  smearing = 'mp'
  degauss = 0.01
  ecutwfc = 70
  ecutrho = 300
/
&ELECTRONS
  conv_thr = 1.0d-12
/

CELL_PARAMETERS bohr
    0.0000000000000000    3.3390000083364089    3.3390000083364089
    3.3390000083364089    0.0000000000000000    3.3390000083364089
    3.3390000083364089    3.3390000083364089    0.0000000000000000
ATOMIC_SPECIES
 Cu   63.54600  Cu.pbe-dn-rrkjus_psl.1.0.0.UPF
ATOMIC_POSITIONS crystal
 Cu   0.0000000000000000  0.0000000000000000  0.0000000000000000

K_POINTS automatic
  9 9 9 0 0 0
