phonons of Si
 &inputph
  tr2_ph=1.0d-12,
  prefix='silicon',
  ldisp=.true.,
  nq1=4, nq2=4, nq3=4
  outdir="./out",
  fildyn='silicon.dyn',
 /
