&inputpp 
   outdir = './out'
   prefix = 'silicon'
   seedname = 'si'
   spin_component = 'none'
   write_mmn = .true.
   write_amn = .true.
   write_unk = .false.
/
