 &control
    calculation = 'scf'
    restart_mode='from_scratch',
    prefix='silicon',
    tstress = .true.
    tprnfor = .true.,
    pseudo_dir = '../../pseudoPotentials/',
    outdir='./out',
 /
 &system
    ibrav=  2, celldm(1) =10.20, nat=  2, ntyp= 1,
    ecutwfc =30.0,
 /
 &electrons
    conv_thr =  1.0d-10
 /
ATOMIC_SPECIES
 Si  28.086  Si.pz-vbc.UPF
ATOMIC_POSITIONS alat
 Si 0.00 0.00 0.00
 Si 0.25 0.25 0.25
K_POINTS crystal
64
  0.00000000  0.00000000  0.00000000  1.562500e-02 
  0.00000000  0.00000000  0.25000000  1.562500e-02 
  0.00000000  0.00000000  0.50000000  1.562500e-02 
  0.00000000  0.00000000  0.75000000  1.562500e-02 
  0.00000000  0.25000000  0.00000000  1.562500e-02 
  0.00000000  0.25000000  0.25000000  1.562500e-02 
  0.00000000  0.25000000  0.50000000  1.562500e-02 
  0.00000000  0.25000000  0.75000000  1.562500e-02 
  0.00000000  0.50000000  0.00000000  1.562500e-02 
  0.00000000  0.50000000  0.25000000  1.562500e-02 
  0.00000000  0.50000000  0.50000000  1.562500e-02 
  0.00000000  0.50000000  0.75000000  1.562500e-02 
  0.00000000  0.75000000  0.00000000  1.562500e-02 
  0.00000000  0.75000000  0.25000000  1.562500e-02 
  0.00000000  0.75000000  0.50000000  1.562500e-02 
  0.00000000  0.75000000  0.75000000  1.562500e-02 
  0.25000000  0.00000000  0.00000000  1.562500e-02 
  0.25000000  0.00000000  0.25000000  1.562500e-02 
  0.25000000  0.00000000  0.50000000  1.562500e-02 
  0.25000000  0.00000000  0.75000000  1.562500e-02 
  0.25000000  0.25000000  0.00000000  1.562500e-02 
  0.25000000  0.25000000  0.25000000  1.562500e-02 
  0.25000000  0.25000000  0.50000000  1.562500e-02 
  0.25000000  0.25000000  0.75000000  1.562500e-02 
  0.25000000  0.50000000  0.00000000  1.562500e-02 
  0.25000000  0.50000000  0.25000000  1.562500e-02 
  0.25000000  0.50000000  0.50000000  1.562500e-02 
  0.25000000  0.50000000  0.75000000  1.562500e-02 
  0.25000000  0.75000000  0.00000000  1.562500e-02 
  0.25000000  0.75000000  0.25000000  1.562500e-02 
  0.25000000  0.75000000  0.50000000  1.562500e-02 
  0.25000000  0.75000000  0.75000000  1.562500e-02 
  0.50000000  0.00000000  0.00000000  1.562500e-02 
  0.50000000  0.00000000  0.25000000  1.562500e-02 
  0.50000000  0.00000000  0.50000000  1.562500e-02 
  0.50000000  0.00000000  0.75000000  1.562500e-02 
  0.50000000  0.25000000  0.00000000  1.562500e-02 
  0.50000000  0.25000000  0.25000000  1.562500e-02 
  0.50000000  0.25000000  0.50000000  1.562500e-02 
  0.50000000  0.25000000  0.75000000  1.562500e-02 
  0.50000000  0.50000000  0.00000000  1.562500e-02 
  0.50000000  0.50000000  0.25000000  1.562500e-02 
  0.50000000  0.50000000  0.50000000  1.562500e-02 
  0.50000000  0.50000000  0.75000000  1.562500e-02 
  0.50000000  0.75000000  0.00000000  1.562500e-02 
  0.50000000  0.75000000  0.25000000  1.562500e-02 
  0.50000000  0.75000000  0.50000000  1.562500e-02 
  0.50000000  0.75000000  0.75000000  1.562500e-02 
  0.75000000  0.00000000  0.00000000  1.562500e-02 
  0.75000000  0.00000000  0.25000000  1.562500e-02 
  0.75000000  0.00000000  0.50000000  1.562500e-02 
  0.75000000  0.00000000  0.75000000  1.562500e-02 
  0.75000000  0.25000000  0.00000000  1.562500e-02 
  0.75000000  0.25000000  0.25000000  1.562500e-02 
  0.75000000  0.25000000  0.50000000  1.562500e-02 
  0.75000000  0.25000000  0.75000000  1.562500e-02 
  0.75000000  0.50000000  0.00000000  1.562500e-02 
  0.75000000  0.50000000  0.25000000  1.562500e-02 
  0.75000000  0.50000000  0.50000000  1.562500e-02 
  0.75000000  0.50000000  0.75000000  1.562500e-02 
  0.75000000  0.75000000  0.00000000  1.562500e-02 
  0.75000000  0.75000000  0.25000000  1.562500e-02 
  0.75000000  0.75000000  0.50000000  1.562500e-02 
  0.75000000  0.75000000  0.75000000  1.562500e-02 
