!! to make phoebe run:
write_tb = true
write_u_matrices = true

#restart           = plot

bands_plot        = true
bands_plot_format = xmgr

num_bands         = 12       
num_wann          = 8
dis_win_max       = 17.d0
dis_froz_max      = 6.4d0
dis_num_iter      = 120
dis_mix_ratio     = 1.d0

num_iter          = 500
num_print_cycles  = 50

begin unit_cell_cart
bohr
-5.1000 0.0000 5.1000
 0.0000 5.1000 5.1000
-5.1000 5.1000 0.0000
end unit_cell_cart

begin atoms_frac
Si   0.00  0.00   0.00 
Si   0.25  0.25   0.25
End atoms_frac
    
begin projections     
Si : sp3 
end projections       
    
begin kpoint_path
L 0.50000  0.50000 0.5000 G 0.00000  0.00000 0.0000
G 0.00000  0.00000 0.0000 X 0.50000  0.00000 0.5000
X 0.50000 -0.50000 0.0000 K 0.37500 -0.37500 0.0000 
K 0.37500 -0.37500 0.0000 G 0.00000  0.00000 0.0000
end kpoint_path

mp_grid = 4 4 4

begin kpoints
  0.00000000  0.00000000  0.00000000 
  0.00000000  0.00000000  0.25000000 
  0.00000000  0.00000000  0.50000000 
  0.00000000  0.00000000  0.75000000 
  0.00000000  0.25000000  0.00000000 
  0.00000000  0.25000000  0.25000000 
  0.00000000  0.25000000  0.50000000 
  0.00000000  0.25000000  0.75000000 
  0.00000000  0.50000000  0.00000000 
  0.00000000  0.50000000  0.25000000 
  0.00000000  0.50000000  0.50000000 
  0.00000000  0.50000000  0.75000000 
  0.00000000  0.75000000  0.00000000 
  0.00000000  0.75000000  0.25000000 
  0.00000000  0.75000000  0.50000000 
  0.00000000  0.75000000  0.75000000 
  0.25000000  0.00000000  0.00000000 
  0.25000000  0.00000000  0.25000000 
  0.25000000  0.00000000  0.50000000 
  0.25000000  0.00000000  0.75000000 
  0.25000000  0.25000000  0.00000000 
  0.25000000  0.25000000  0.25000000 
  0.25000000  0.25000000  0.50000000 
  0.25000000  0.25000000  0.75000000 
  0.25000000  0.50000000  0.00000000 
  0.25000000  0.50000000  0.25000000 
  0.25000000  0.50000000  0.50000000 
  0.25000000  0.50000000  0.75000000 
  0.25000000  0.75000000  0.00000000 
  0.25000000  0.75000000  0.25000000 
  0.25000000  0.75000000  0.50000000 
  0.25000000  0.75000000  0.75000000 
  0.50000000  0.00000000  0.00000000 
  0.50000000  0.00000000  0.25000000 
  0.50000000  0.00000000  0.50000000 
  0.50000000  0.00000000  0.75000000 
  0.50000000  0.25000000  0.00000000 
  0.50000000  0.25000000  0.25000000 
  0.50000000  0.25000000  0.50000000 
  0.50000000  0.25000000  0.75000000 
  0.50000000  0.50000000  0.00000000 
  0.50000000  0.50000000  0.25000000 
  0.50000000  0.50000000  0.50000000 
  0.50000000  0.50000000  0.75000000 
  0.50000000  0.75000000  0.00000000 
  0.50000000  0.75000000  0.25000000 
  0.50000000  0.75000000  0.50000000 
  0.50000000  0.75000000  0.75000000 
  0.75000000  0.00000000  0.00000000 
  0.75000000  0.00000000  0.25000000 
  0.75000000  0.00000000  0.50000000 
  0.75000000  0.00000000  0.75000000 
  0.75000000  0.25000000  0.00000000 
  0.75000000  0.25000000  0.25000000 
  0.75000000  0.25000000  0.50000000 
  0.75000000  0.25000000  0.75000000 
  0.75000000  0.50000000  0.00000000 
  0.75000000  0.50000000  0.25000000 
  0.75000000  0.50000000  0.50000000 
  0.75000000  0.50000000  0.75000000 
  0.75000000  0.75000000  0.00000000 
  0.75000000  0.75000000  0.25000000 
  0.75000000  0.75000000  0.50000000 
  0.75000000  0.75000000  0.75000000 
end kpoints