 &control
    calculation = 'scf'
    restart_mode='from_scratch',
    prefix='silicon',
    tstress = .true.
    tprnfor = .true.,
    pseudo_dir = '../../pseudoPotentials/',
    outdir='./out',
 /
 &system
    ibrav = 0
    nat = ##NATOMS##
    ntyp = 1,
    ecutwfc = 30.
 /
 &electrons
    conv_thr =  1.0d-10
 /
ATOMIC_SPECIES
 Si  28.086  Si.pz-vbc.UPF
##COORDINATES##

##CELL##
K_POINTS automatic
3 3 3 0 0 0

